LAMMPS data file via write_data, version 29 Aug 2024, timestep = 182, units = metal

2048 atoms
1 atom types

0 25 xlo xhi
0 25 ylo yhi
0 25 zlo zhi

Masses

1 26.9815

Atoms # atomic

36 1 0.9896913050560178 3.316284686126155 4.123960758580614 0 0 0
55 1 24.521348961933562 2.1139877033235432 3.0055187511860084 -1 0 0
63 1 1.5563893206888333 2.1778124021180725 2.418656930327466 0 0 0
74 1 3.4663347127787763 1.9326999760207175 1.6854093065804419 0 0 0
79 1 1.2212037316622444 0.87887734545725 0.8223217043104531 0 0 0
796 1 10.82477412210498 22.095392755916276 0.03382735377774161 0 0 1
137 1 1.336459874732791 1.137192125822402 4.447841112827416 0 0 0
159 1 2.3481156110922705 0.2709190830241426 2.8045290370932237 0 0 0
162 1 0.7170987527192743 3.9939622103201353 2.195601423009909 0 0 0
168 1 3.06574540903361 24.72535872407982 1.0437525378674548 0 -1 0
210 1 2.94079796397325 3.9616595335083566 1.7618440709845176 0 0 0
7 1 5.712767716770181 2.430656371952846 1.2809871240127626 0 0 0
42 1 6.633860799161229 0.5262210874432872 2.2107420999849206 0 0 0
1820 1 23.324774122088687 22.095392755916198 0.03382735376993014 0 0 1
114 1 4.355449745731998 3.676802423879844 3.1644230366943114 0 0 0
124 1 6.464539966646102 3.5597998259039887 2.9373626644501565 0 0 0
140 1 6.8298415120096045 1.8018167066002115 3.8582960310666654 0 0 0
149 1 4.910228271248516 1.5096463950632613 3.0536022883594396 0 0 0
161 1 7.0403054002292995 1.1080835503470718 0.06880054153270874 0 0 0
167 1 7.194764863811216 4.12536436250788 0.9885522844964381 0 0 0
207 1 4.9418724759737165 0.5391834849405542 0.8729716087134592 0 0 0
12 1 10.751963819747473 3.3255860610872747 4.237315984366916 0 0 0
19 1 7.840433463232957 2.18889371645161 1.913935911284153 0 0 0
1756 1 24.161955221308844 23.350559993642296 1.5236352233968389 0 0 0
56 1 11.602280167472692 0.5608667783747691 1.1716337715260385 0 0 0
65 1 12.219731030343132 2.463961868175222 0.8372614048324736 0 0 0
107 1 10.729218550446506 0.604717181709748 4.133582339067617 0 0 0
111 1 10.121259271715418 2.0703503304357023 2.129098561398351 0 0 0
119 1 8.663780947182971 2.9220399607712175 3.7057434798201796 0 0 0
129 1 11.186155748826959 4.19551174785303 2.362238631027966 0 0 0
131 1 12.260300538056356 4.491295416671293 0.46271152725553566 0 0 0
152 1 8.857083713406768 0.5575853515404556 0.986010211194067 0 0 0
1308 1 23.32477412199659 9.595392755849787 0.03382735376444753 0 0 1
196 1 8.723416023347292 0.812107929941048 3.4179193506680217 0 0 0
284 1 10.824774121975029 9.595392755845072 0.03382735375011479 0 0 1
1060 1 13.489691305069998 3.316284686131006 4.123960758579495 0 0 0
1079 1 12.021348961949 2.1139877033341903 3.0055187511692654 0 0 0
1087 1 14.056389320696187 2.1778124021306846 2.418656930309918 0 0 0
1098 1 15.966334712783139 1.9326999760281829 1.6854093065551639 0 0 0
1103 1 13.72120373169426 0.878877345464657 0.8223217042943413 0 0 0
219 1 1.838555552583511 6.831850853355277 4.824682800721043 0 0 0
1161 1 13.836459874761557 1.1371921258302662 4.447841112817891 0 0 0
1183 1 14.84811561111736 0.2709190830396216 2.804529037069015 0 0 0
1186 1 13.217098752727193 3.9939622103344914 2.195601423003141 0 0 0
1192 1 15.56574540905936 24.725358724079225 1.04375253784833 0 -1 0
1234 1 15.44079796399239 3.961659533515734 1.7618440709824996 0 0 0
1031 1 18.212767716783155 2.4306563719683605 1.2809871240284527 0 0 0
1066 1 19.13386079915548 0.5262210874469911 2.210742099969431 0 0 0
1243 1 14.338555552574679 6.831850853367102 4.824682800718167 0 0 0
1138 1 16.85544974574725 3.6768024239057677 3.164423036692256 0 0 0
1148 1 18.964539966654108 3.5597998259218913 2.937362664459113 0 0 0
1164 1 19.32984151198642 1.8018167066006179 3.8582960310485044 0 0 0
1173 1 17.410228271229002 1.5096463950672996 3.0536022883479235 0 0 0
1185 1 19.540305400239234 1.1080835503548165 0.06880054151801045 0 0 0
1191 1 19.694764863820033 4.125364362530844 0.9885522845189839 0 0 0
1231 1 17.4418724759858 0.5391834849745719 0.8729716086850051 0 0 0
1036 1 23.25196381972978 3.325586061088474 4.237315984372571 0 0 0
1043 1 20.340433463240362 2.188893716447634 1.9139359112908025 0 0 0
1742 1 24.469745965731768 21.74636110575275 4.4649246175397845 0 0 0
1080 1 24.102280167431083 0.5608667783801047 1.1716337715241618 0 0 0
1089 1 24.71973103031693 2.4639618681726976 0.8372614048532986 0 0 0
1131 1 23.229218550428577 0.6047171816986137 4.13358233907703 0 0 0
1135 1 22.62125927170766 2.0703503304417614 2.129098561404365 0 0 0
1143 1 21.163780947161964 2.922039960761718 3.705743479841419 0 0 0
1153 1 23.686155748820998 4.195511747860779 2.362238631049584 0 0 0
1155 1 24.760300538048913 4.491295416668557 0.4627115272608858 0 0 0
1176 1 21.35708371342461 0.5575853515527082 0.9860102111773523 0 0 0
731 1 1.8385555527679607 19.331850853467824 4.824682800939991 0 0 0
1220 1 21.223416023332977 0.8121079299415599 3.4179193506670646 0 0 0
2018 1 14.232523913428865 15.67477373599309 0.35327714545981487 0 0 1
11 1 3.620173044932815 5.185948627667197 0.03869069857174517 0 0 0
21 1 0.1905417305481228 7.441613295450881 3.672840872380701 0 0 0
53 1 0.10667873363874972 6.04984131332151 2.0533494550696054 0 0 0
80 1 3.72293385196886 5.887037983854342 4.389189194143737 0 0 0
98 1 24.78317095890508 5.2612291757074745 4.031209340025198 -1 0 0
104 1 2.0257099661068056 5.068946814146281 3.3691061504167408 0 0 0
144 1 3.8208363162519925 8.04482874059735 4.721197952566749 0 0 0
193 1 2.049898235695186 7.072382151086812 2.6519450934448905 0 0 0
198 1 1.1107371587416015 7.632874370803897 0.836000741950641 0 0 0
248 1 1.7241221673420872 5.474598149077428 0.8698344461579204 0 0 0
13 1 7.3042269402893805 7.625185665218175 1.8822551718445062 0 0 0
14 1 3.090469629956122 7.138509069356543 0.6363770310068787 0 0 0
31 1 5.601520995408987 9.013748977016947 1.6751893402825482 0 0 0
38 1 7.919440615703583 4.858554609904582 3.697743714590612 0 0 0
40 1 6.4322158637251325 5.697342256217419 2.3585037171269003 0 0 0
103 1 7.2398966356874865 6.721864844322522 4.007598750931714 0 0 0
116 1 5.253469573162949 7.1891028065159635 3.366435730747404 0 0 0
177 1 3.842274060625918 5.824123276546012 2.323343104432404 0 0 0
181 1 5.172964775529167 6.978601626891822 1.1386762209604713 0 0 0
215 1 5.132048459331506 4.493968660102401 1.333477681279713 0 0 0
237 1 5.649309090513726 5.062112625381715 4.199197153471775 0 0 0
238 1 6.8121258276351995 6.015340379756938 0.32593553892067084 0 0 0
54 1 8.632209108157602 6.062952905486494 1.9963705203390532 0 0 0
59 1 10.864239316809147 6.8967445153953495 2.7974026740838225 0 0 0
106 1 9.08199414141414 7.548839838956154 3.563694928554235 0 0 0
1716 1 21.822740176671495 23.68057188627644 3.929386790139713 0 0 0
994 1 1.7325239134459363 15.67477373600222 0.35327714544871225 0 0 1
166 1 9.423701019444295 8.156267692783945 1.4719485796767375 0 0 0
183 1 9.094537215188812 4.052812161153211 2.0133020951190557 0 0 0
184 1 11.621456042170164 8.01848842314359 1.200397997850786 0 0 0
203 1 10.556586634541294 5.883517188938652 1.0002265431074349 0 0 0
225 1 9.94710892549723 5.333809128172993 3.663176871387392 0 0 0
1035 1 16.120173044932553 5.185948627671318 0.038690698561736944 0 0 0
1045 1 12.690541730541085 7.441613295471106 3.6728408723805956 0 0 0
1077 1 12.606678733640459 6.049841313331479 2.0533494550644074 0 0 0
1104 1 16.22293385197319 5.887037983872471 4.389189194138953 0 0 0
1122 1 12.283170958920941 5.261229175713103 4.031209340010173 0 0 0
1128 1 14.52570996612833 5.068946814145385 3.3691061504162976 0 0 0
1168 1 16.32083631625218 8.044828740604558 4.721197952582006 0 0 0
1217 1 14.549898235691039 7.0723821510871945 2.651945093443899 0 0 0
1222 1 13.610737158739214 7.632874370812609 0.8360007419460371 0 0 0
1272 1 14.224122167349671 5.47459814908556 0.8698344461597108 0 0 0
1037 1 19.80422694028875 7.6251856652234125 1.8822551718545086 0 0 0
1038 1 15.59046962995852 7.1385090693678155 0.6363770309997692 0 0 0
1055 1 18.101520995417573 9.013748977035384 1.675189340292184 0 0 0
1062 1 20.419440615701497 4.858554609908849 3.6977437146068253 0 0 0
1064 1 18.932215863714855 5.697342256230387 2.3585037171398957 0 0 0
1127 1 19.73989663569278 6.721864844328542 4.007598750948386 0 0 0
1140 1 17.753469573166996 7.18910280653583 3.366435730761107 0 0 0
1201 1 16.342274060633283 5.8241232765575335 2.323343104425466 0 0 0
1205 1 17.67296477552663 6.978601626916307 1.1386762209636703 0 0 0
1239 1 17.63204845933942 4.493968660120262 1.3334776812664173 0 0 0
1261 1 18.149309090517534 5.06211262539622 4.1991971534889885 0 0 0
1262 1 19.312125827623777 6.01534037976845 0.32593553892252947 0 0 0
1078 1 21.1322091081549 6.062952905497473 1.9963705203526216 0 0 0
1083 1 23.36423931680387 6.8967445153980185 2.7974026740911473 0 0 0
1130 1 21.581994141416104 7.548839838966779 3.5636949285673962 0 0 0
1707 1 23.196003016395558 21.62420564024298 2.805816254661628 0 0 0
1755 1 14.338555552781202 19.331850853464296 4.824682800933377 0 0 0
1190 1 21.923701019440063 8.156267692796204 1.4719485796845528 0 0 0
1207 1 21.594537215183433 4.0528121611600625 2.013302095153259 0 0 0
1208 1 24.121456042170493 8.018488423136544 1.2003979978539387 0 0 0
1227 1 23.05658663453826 5.88351718894965 1.00022654311543 0 0 0
1249 1 22.44710892549073 5.333809128186985 3.6631768714062773 0 0 0
50 1 0.5249925606394535 9.644728029188121 0.3340397942984006 0 0 0
1757 1 17.595281280745247 15.174916123379827 4.97054634750533 0 0 0
139 1 1.2877095854747298 11.22153843432344 1.6499228989055392 0 0 0
141 1 3.4229171859938003 12.262535528186215 4.401551326820984 0 0 0
148 1 2.3042631809919687 9.173765167593837 1.4442533129303112 0 0 0
209 1 4.2091234810126545 10.455110330999045 1.2474822941444228 0 0 0
228 1 1.9510188515590046 8.845595130987498 3.8610845622207126 0 0 0
241 1 2.9533293341431537 10.64040217408125 2.867599202059828 0 0 0
251 1 1.1440265300683845 10.938978151032284 3.8041186343112026 0 0 0
27 1 6.175417512400126 11.366357510328237 1.0960937031582005 0 0 0
44 1 3.753787153446571 8.214876264899742 2.405267355416196 0 0 0
71 1 7.506841091850403 9.659282872177375 1.2472074183702235 0 0 0
77 1 3.113511463725381 10.201395466877393 4.996128576718848 0 0 0
85 1 8.080959387860531 11.558840778780558 2.210789155445402 0 0 0
117 1 7.134953078729133 12.223544503071317 4.181077595780478 0 0 0
155 1 6.676401963967983 8.688117451078181 3.5427713427118768 0 0 0
190 1 4.725841191415378 11.915355913410735 2.797980630373735 0 0 0
222 1 6.424959391392902 10.648028814195895 3.049059688992333 0 0 0
230 1 4.653968983231872 9.621602746974084 3.5433855480069707 0 0 0
1693 1 23.93269978537911 23.4932390003231 3.5406279127988967 0 0 0
17 1 8.475913979481136 9.505722208753552 3.122947594083481 0 0 0
20 1 9.842364563651218 9.261435840571641 4.796342316089097 0 0 0
1506 1 14.232523913552225 3.174773735892135 0.35327714543928024 0 0 1
72 1 9.576116815693378 10.4184784227549 1.453504808412932 0 0 0
118 1 12.89108389352445 9.282925699205599 2.4819739370332035 0 0 0
122 1 12.659981340213069 12.625083167432656 2.8632466898491375 0 0 0
138 1 10.209047435415416 12.244972786018149 2.306621253992732 0 0 0
157 1 11.43269978522175 10.99323900036347 3.540627912620837 0 0 0
171 1 10.696003016432012 9.124205640056058 2.80581625471606 0 0 0
180 1 9.322740176546505 11.180571886230453 3.9293867901077006 0 0 0
206 1 11.969745965716037 9.246361105972683 4.464924617518506 0 0 0
220 1 11.661955221163463 10.850559993735452 1.5236352232273844 0 0 0
1074 1 13.024992560632967 9.64472802919008 0.3340397942959098 0 0 0
733 1 5.095281280741939 15.174916123376523 4.970546347502328 0 0 0
1163 1 13.78770958545998 11.221538434326735 1.649922898922757 0 0 0
1165 1 15.92291718600335 12.2625355281768 4.401551326836188 0 0 0
1172 1 14.804263180984885 9.173765167598685 1.4442533129394117 0 0 0
1233 1 16.709123481010653 10.455110331006988 1.2474822941411712 0 0 0
1252 1 14.451018851561765 8.84559513099022 3.8610845622168033 0 0 0
1265 1 15.45332933414716 10.640402174077115 2.867599202061548 0 0 0
1275 1 13.644026530075873 10.938978151035455 3.8041186343230025 0 0 0
1051 1 18.6754175124189 11.366357510314092 1.0960937031772646 0 0 0
1068 1 16.25378715344662 8.214876264903477 2.405267355419687 0 0 0
1095 1 20.006841091871177 9.65928287217283 1.247207418373185 0 0 0
1101 1 15.613511463725247 10.201395466874253 4.996128576724467 0 0 0
1109 1 20.580959387872866 11.558840778786841 2.2107891554506542 0 0 0
1141 1 19.63495307874246 12.22354450307224 4.181077595797952 0 0 0
1179 1 19.176401963988326 8.688117451079473 3.542771342724134 0 0 0
1214 1 17.22584119142622 11.915355913386502 2.7979806303917254 0 0 0
1246 1 18.924959391417076 10.6480288141943 3.049059689014203 0 0 0
1254 1 17.153968983239523 9.621602746970932 3.543385548013453 0 0 0
1674 1 22.70904743557445 24.744972785985997 2.3066212540525006 0 0 0
1041 1 20.975913979494887 9.505722208768823 3.1229475940932647 0 0 0
1044 1 22.342364563664145 9.261435840581624 4.7963423160954335 0 0 0
482 1 1.7325239135287416 3.1747737358783983 0.3532771454562106 0 0 1
1096 1 22.07611681571001 10.418478422768105 1.4535048084189748 0 0 0
1142 1 0.3910838935333978 9.282925699190322 2.481973937023199 1 0 0
1146 1 0.15998134020743537 12.625083167423739 2.8632466898361724 1 0 0
1162 1 22.7090474354349 12.244972786026581 2.3066212540097286 0 0 0
1181 1 23.93269978521819 10.993239000359244 3.540627912638841 0 0 0
1195 1 23.196003016434577 9.124205640057484 2.805816254709132 0 0 0
1204 1 21.82274017655157 11.180571886249547 3.9293867901277073 0 0 0
1230 1 24.469745965733665 9.246361105949788 4.464924617511623 0 0 0
1244 1 24.161955221181106 10.850559993740774 1.52363522324391 0 0 0
548 1 0.9896913050186583 15.816284686173137 4.123960758515545 0 0 0
567 1 24.521348961814887 14.613987703410078 3.005518751059925 -1 0 0
575 1 1.556389320565592 14.677812402181784 2.418656930252816 0 0 0
586 1 3.4663347126540915 14.432699976143727 1.6854093065682128 0 0 0
591 1 1.2212037314963913 13.378877345467261 0.8223217042610463 0 0 0
589 1 3.113511463828856 22.701395466863737 4.996128576817049 0 0 0
649 1 1.3364598745371812 13.637192125836142 4.447841112746661 0 0 0
671 1 2.348115610951671 12.770919083112247 2.804529037047381 0 0 0
674 1 0.7170987525732558 16.493962210388965 2.195601422976769 0 0 0
680 1 3.065745408914245 12.225358724170363 1.0437525378376316 0 0 0
722 1 2.9407979637824675 16.461659533628687 1.7618440711257513 0 0 0
519 1 5.712767716649512 14.930656371963448 1.2809871241071458 0 0 0
554 1 6.633860799038987 13.026221087384496 2.210742099901208 0 0 0
1613 1 15.613511463835119 22.701395466865844 4.996128576807797 0 0 0
626 1 4.355449745748846 16.176802423676566 3.164423036606296 0 0 0
636 1 6.4645399666661145 16.059799825968287 2.9373626644272828 0 0 0
652 1 6.829841511647665 14.301816706550898 3.858296030953223 0 0 0
661 1 4.910228270957447 14.00964639481423 3.053602288337796 0 0 0
673 1 7.040305400075945 13.608083550310576 0.06880054149928724 0 0 0
679 1 7.19476486367651 16.625364362505017 0.9885522844830315 0 0 0
719 1 4.941872475849967 13.03918348497362 0.8729716086824028 0 0 0
524 1 10.751963819518489 15.825586061085147 4.237315984244195 0 0 0
531 1 7.840433463127658 14.688893716368856 1.9139359112754049 0 0 0
1658 1 0.15998134039365824 0.12508316736368166 2.863246689967246 1 1 0
568 1 11.602280167200915 13.06086677841793 1.1716337713995206 0 0 0
577 1 12.219731030214211 14.963961868187143 0.8372614047306532 0 0 0
619 1 10.729218550306939 13.104717181728402 4.133582338959854 0 0 0
623 1 10.121259271530494 14.570350330419215 2.1290985613823654 0 0 0
631 1 8.663780946878875 15.42203996057916 3.705743479923226 0 0 0
641 1 11.186155748649334 16.695511747912974 2.362238630982488 0 0 0
643 1 12.260300537869272 16.991295416716792 0.46271152726162657 0 0 0
664 1 8.857083713314243 13.057585351550966 0.9860102110948438 0 0 0
587 1 5.278847770388571 23.53117634632145 4.911543475494521 0 0 0
708 1 8.723416023118666 13.31210792986696 3.417919350702434 0 0 0
1171 1 23.41429730161885 7.29585238559047 4.932854163797225 0 0 0
1572 1 13.489691305029378 15.816284686173443 4.12396075851897 0 0 0
1591 1 12.02134896181002 14.613987703415557 3.005518751076871 0 0 0
1599 1 14.056389320566257 14.677812402170627 2.4186569302687686 0 0 0
1610 1 15.966334712660304 14.432699976146676 1.6854093065934643 0 0 0
1615 1 13.721203731490982 13.378877345467 0.8223217042750982 0 0 0
659 1 10.914297301521577 19.795852385570434 4.932854163967433 0 0 0
1673 1 13.836459874530936 13.637192125834813 4.447841112762899 0 0 0
1695 1 14.848115610953888 12.770919083106046 2.8045290370635816 0 0 0
1698 1 13.217098752559528 16.493962210379827 2.195601422979001 0 0 0
1704 1 15.56574540889954 12.225358724170578 1.0437525378501598 0 0 0
1746 1 15.440797963761709 16.461659533630716 1.7618440711347905 0 0 0
1543 1 18.212767716647473 14.930656371945021 1.2809871241066857 0 0 0
1578 1 19.133860799044186 13.026221087375529 2.210742099922767 0 0 0
1611 1 17.778847770391984 23.531176346331193 4.911543475486691 0 0 0
1650 1 16.855449745747062 16.176802423639344 3.164423036597237 0 0 0
1660 1 18.96453996667178 16.05979982595561 2.9373626644214252 0 0 0
1676 1 19.32984151165944 14.301816706553883 3.858296030972332 0 0 0
1685 1 17.410228270967313 14.009646394789375 3.0536022883502016 0 0 0
1697 1 19.540305400082747 13.608083550290551 0.06880054152083977 0 0 0
1703 1 19.694764863669526 16.625364362488874 0.9885522844709739 0 0 0
1743 1 17.441872475847703 13.039183484941397 0.8729716087115319 0 0 0
1548 1 23.251963819532108 15.825586061082783 4.237315984245929 0 0 0
1555 1 20.340433463127848 14.688893716363873 1.913935911277028 0 0 0
1654 1 0.39108389357317885 21.782925698838937 2.4819739371222513 1 0 0
1592 1 24.102280167196383 13.06086677842287 1.1716337713815261 0 0 0
1601 1 24.719731030231372 14.963961868186791 0.8372614047121464 0 0 0
1643 1 23.22921855031047 13.10471718173792 4.133582338972106 0 0 0
1647 1 22.621259271534743 14.570350330421496 2.1290985613717326 0 0 0
1655 1 21.163780946892544 15.422039960587947 3.7057434799198177 0 0 0
1665 1 23.68615574865692 16.69551174791065 2.3622386309773025 0 0 0
1667 1 24.76030053787193 16.991295416719893 0.4627115272655445 0 0 0
1688 1 21.357083713338476 13.057585351548669 0.9860102110974422 0 0 0
1099 1 17.778847770267085 11.03117634629256 4.911543475466963 0 0 0
1732 1 21.223416023127722 13.31210792987274 3.417919350712006 0 0 0
672 1 5.265416866183358 0.6102670892217796 4.887686513296746 0 1 0
523 1 3.620173044900838 17.68594862773941 0.03869069865030638 0 0 0
533 1 0.19054173060837862 19.941613295105597 3.672840872862637 0 0 0
565 1 0.10667873351735321 18.5498413134494 2.0533494550637466 0 0 0
592 1 3.7229338519503035 18.38703798390417 4.389189194133057 0 0 0
610 1 24.783170958685538 17.761229175524488 4.031209339972799 -1 0 0
616 1 2.0257099658144764 17.568946814447855 3.3691061504308593 0 0 0
656 1 3.8208363163366976 20.544828740638362 4.721197952771038 0 0 0
705 1 2.0498982355127673 19.572382151298847 2.6519450933719084 0 0 0
710 1 1.1107371587811896 20.132874370781558 0.8360007416687181 0 0 0
760 1 1.7241221672360814 17.974598149129676 0.869834446144987 0 0 0
525 1 7.304226940308085 20.125185665226805 1.8822551719241942 0 0 0
526 1 3.0904696299785432 19.638509069414383 0.6363770309813521 0 0 0
543 1 5.6015209954921374 21.513748976972266 1.6751893403793479 0 0 0
550 1 7.919440615697276 17.35855460989658 3.6977437147026535 0 0 0
552 1 6.432215863739362 18.197342256232982 2.3585037171850676 0 0 0
615 1 7.239896635667449 19.221864844271764 4.00759875106182 0 0 0
628 1 5.253469573196646 19.68910280651591 3.3664357308386146 0 0 0
689 1 3.8422740604849484 18.324123276603707 2.3233431045017237 0 0 0
693 1 5.172964775505018 19.478601626870663 1.1386762210264076 0 0 0
727 1 5.132048459228013 16.99396866016713 1.333477681379846 0 0 0
749 1 5.649309090418356 17.562112625314892 4.199197153470528 0 0 0
750 1 6.812125827653011 18.5153403797977 0.32593553896640876 0 0 0
566 1 8.632209108146427 18.56295290551871 1.9963705204549194 0 0 0
571 1 10.864239316820369 19.39674451570695 2.797402674196489 0 0 0
618 1 9.081994141353336 20.04883983907241 3.563694928627058 0 0 0
1608 1 22.07611681573014 22.918478422865515 1.453504808295439 0 0 0
1696 1 17.76541686617869 0.6102670892263784 4.887686513293486 0 1 0
678 1 9.423701019457283 20.65626769285657 1.4719485797213268 0 0 0
695 1 9.094537214979953 16.55281216110977 2.0133020952931804 0 0 0
696 1 11.621456042198144 20.518488423188142 1.2003979978259587 0 0 0
715 1 10.556586634446028 18.38351718907397 1.000226543183163 0 0 0
737 1 9.947108925485754 17.83380912834671 3.6631768713923427 0 0 0
1547 1 16.12017304489355 17.68594862772766 0.03869069865576863 0 0 0
1557 1 12.690541730622368 19.941613295084938 3.672840872854169 0 0 0
1589 1 12.60667873350893 18.54984131344511 2.0533494550569666 0 0 0
1616 1 16.222933851945832 18.38703798390292 4.3891891941292 0 0 0
1634 1 12.28317095866881 17.761229175516426 4.031209339975356 0 0 0
1640 1 14.52570996578479 17.568946814473293 3.3691061504257247 0 0 0
1680 1 16.32083631633783 20.54482874064065 4.721197952751751 0 0 0
1729 1 14.54989823551737 19.57238215131031 2.651945093359395 0 0 0
1734 1 13.61073715878086 20.132874370775365 0.8360007416496946 0 0 0
1784 1 14.224122167225618 17.974598149129978 0.8698344461375052 0 0 0
1549 1 19.804226940308535 20.12518566522273 1.8822551719147513 0 0 0
1550 1 15.590469629978372 19.638509069402012 0.6363770309853793 0 0 0
1567 1 18.10152099549157 21.513748976961836 1.675189340369235 0 0 0
1574 1 20.41944061569238 17.35855460989559 3.6977437146981393 0 0 0
1576 1 18.932215863747302 18.19734225622374 2.3585037171691514 0 0 0
1639 1 19.73989663565916 19.221864844273796 4.007598751046004 0 0 0
1652 1 17.75346957319344 19.689102806507 3.366435730822495 0 0 0
1713 1 16.342274060481003 18.32412327659572 2.323343104502156 0 0 0
1717 1 17.672964775505637 19.478601626855756 1.1386762210181136 0 0 0
1751 1 17.632048459221174 16.993968660152497 1.3334776813933054 0 0 0
1773 1 18.149309090408583 17.56211262530449 4.199197153450766 0 0 0
1774 1 19.312125827657276 18.515340379786977 0.32593553895982735 0 0 0
1590 1 21.13220910814437 18.562952905507025 1.9963705204486488 0 0 0
1595 1 23.364239316826584 19.396744515674843 2.797402674196523 0 0 0
1642 1 21.58199414135322 20.048839839056697 3.5636949286225312 0 0 0
1184 1 17.76541686596595 13.110267089205513 4.887686513374988 0 0 0
75 1 5.278847770260912 11.03117634630179 4.911543475455319 0 0 0
1702 1 21.92370101946269 20.65626769284747 1.4719485797188754 0 0 0
1719 1 21.594537214977017 16.552812161104 2.013302095280031 0 0 0
1720 1 24.121456042188516 20.518488423186344 1.2003979978298922 0 0 0
1739 1 23.056586634447754 18.383517189066445 1.0002265431757995 0 0 0
1761 1 22.447108925486205 17.833809128326006 3.66317687139157 0 0 0
562 1 0.524992560761689 22.144728029186407 0.3340397943285629 0 0 0
1245 1 17.595281280890617 2.6749161234025336 4.970546347507043 0 0 0
651 1 1.2877095855838976 23.721538434220296 1.6499228989907284 0 0 0
653 1 3.4229171861491485 24.7625355281975 4.4015513269008 0 0 0
660 1 2.304263181009723 21.673765167523023 1.4442533130576118 0 0 0
721 1 4.209123481155549 22.95511033095004 1.2474822942528374 0 0 0
740 1 1.9510188516244469 21.345595130969738 3.861084562370019 0 0 0
753 1 2.953329334284913 23.14040217402433 2.8675992021588534 0 0 0
763 1 1.1440265301384953 23.438978150878455 3.8041186343185487 0 0 0
539 1 6.175417512515016 23.866357510351616 1.0960937032374363 0 0 0
556 1 3.753787153477825 20.714876264851842 2.405267355524366 0 0 0
583 1 7.506841091920348 22.1592828721903 1.247207418352523 0 0 0
1683 1 23.414297301517742 19.795852385586052 4.932854163962162 0 0 0
597 1 8.080959387942801 24.05884077880154 2.21078915550132 0 0 0
629 1 7.134953078955926 24.7235445030799 4.181077595806679 0 0 0
667 1 6.676401964086759 21.18811745107529 3.5427713428027263 0 0 0
702 1 4.725841191500477 24.41535591353106 2.7979806304164705 0 0 0
734 1 6.424959391453609 23.148028814205347 3.0490596890622728 0 0 0
742 1 4.653968983339765 22.12160274692736 3.543385548100412 0 0 0
1556 1 22.342364563708262 21.761435840670963 4.79634231610196 0 0 0
529 1 8.475913979521522 22.005722208873035 3.1229475940710376 0 0 0
532 1 9.842364563720311 21.761435840663623 4.796342316097769 0 0 0
160 1 5.265416865960199 13.11026708920862 4.887686513357039 0 0 0
584 1 9.576116815727504 22.918478422892274 1.4535048082713862 0 0 0
630 1 12.891083893579877 21.78292569883409 2.481973937110819 0 0 0
634 1 12.659981340426373 0.1250831673785346 2.863246689972153 0 1 0
650 1 10.2090474355939 24.744972785994488 2.3066212540440163 0 0 0
669 1 11.432699785420422 23.493239000339457 3.5406279127983122 0 0 0
683 1 10.696003016384799 21.624205640289837 2.8058162546324823 0 0 0
692 1 9.322740176711795 23.68057188627665 3.9293867901388264 0 0 0
718 1 11.969745965733956 21.746361105729466 4.4649246175137565 0 0 0
732 1 11.661955221326137 23.350559993650208 1.5236352233900667 0 0 0
1586 1 13.024992560773262 22.144728029190965 0.334039794320367 0 0 0
221 1 5.095281280895171 2.6749161234048033 4.970546347507504 0 0 0
1675 1 13.787709585597927 23.721538434228204 1.6499228989788073 0 0 0
1677 1 15.922917186149702 24.762535528204374 4.40155132688678 0 0 0
1684 1 14.804263181014715 21.67376516752238 1.4442533130407347 0 0 0
1745 1 16.709123481158763 22.955110330938012 1.2474822942468295 0 0 0
1764 1 14.451018851619821 21.345595130971855 3.861084562367221 0 0 0
1777 1 15.453329334290958 23.1404021740242 2.8675992021461805 0 0 0
1787 1 13.644026530155298 23.438978150886207 3.804118634309281 0 0 0
1563 1 18.675417512501785 23.866357510358643 1.0960937032146443 0 0 0
1580 1 16.253787153481188 20.714876264863573 2.405267355515202 0 0 0
1607 1 20.00684109191047 22.159282872193238 1.2472074183510762 0 0 0
147 1 10.914297301619527 7.295852385598046 4.932854163784131 0 0 0
1621 1 20.580959387941512 24.05884077881109 2.2107891554784698 0 0 0
1653 1 19.634953078944186 24.72354450308256 4.181077595800149 0 0 0
1691 1 19.1764019640777 21.188117451079716 3.542771342795632 0 0 0
1726 1 17.22584119150334 24.415355913539425 2.7979806303953882 0 0 0
1758 1 18.92495939145687 23.14802881421142 3.0490596890441437 0 0 0
1766 1 17.153968983346463 22.121602746937974 3.5433855480920067 0 0 0
1553 1 20.97591397952075 22.005722208859357 3.122947594068331 0 0 0
33 1 3.352425192161498 3.8908874317977054 4.981733868651385 0 0 0
173 1 3.1261433309327495 2.054729335065207 4.0068342276548785 0 0 0
1057 1 15.852425192178638 3.890887431818865 4.981733868659671 0 0 0
1197 1 15.626143330929237 2.054729335103193 4.006834227636764 0 0 0
1709 1 15.626143330780563 14.55472933505235 4.006834227736689 0 0 0
1569 1 15.852425192078144 16.390887431906826 4.981733868491552 0 0 0
545 1 3.3524251920917996 16.390887431910595 4.981733868512784 0 0 0
685 1 3.1261433307688757 14.554729335078637 4.006834227713929 0 0 0
500 1 8.525064330600037 2.8002416463458353 0.09371159387599093 0 0 1
1524 1 21.025064330587295 2.80024164637368 0.0937115938932287 0 0 1
1321 1 21.40663436383611 5.071828082041985 0.03261441806472476 0 0 1
1712 1 22.936319702145532 16.17470988373737 0.3929519490684221 0 0 0
1012 1 8.52506433040003 15.300241646351754 0.09371159389883132 0 0 1
2036 1 21.02506433040403 15.300241646337717 0.09371159389568362 0 0 1
809 1 8.906634363792966 17.571828081996934 0.03261441818538913 0 0 1
688 1 10.436319702137661 16.174709883749344 0.39295194907452213 0 0 0
176 1 10.436319702322258 3.6747098837537853 0.3929519489098112 0 0 0
297 1 8.906634363849165 5.071828082018937 0.03261441805164367 0 0 1
1200 1 22.93631970230792 3.6747098837818233 0.3929519489434128 0 0 0
1833 1 21.406634363796794 17.571828081978694 0.032614418178276594 0 0 1
1747 1 23.806174955145803 21.881635901808494 6.5391744606177795 0 0 0
35 1 3.0735156660351275 1.118139716107834 6.032778234183497 0 0 0
88 1 3.9576530926519102 2.7160473253323913 6.884264333211773 0 0 0
130 1 1.0409869616052134 4.390018714371313 7.625225828628393 0 0 0
132 1 2.0731330777575776 2.2154572313659378 7.862107218452356 0 0 0
1714 1 0.005078999608329582 23.65894781547582 6.935904270429148 1 0 0
1671 1 23.53806663447421 20.88729073095659 8.31196358449568 0 0 0
185 1 1.73683644099686 2.8098248800541956 5.964107711200731 0 0 0
188 1 1.596869737269405 0.9127033992055015 9.364775540876634 0 0 0
202 1 24.801494021119588 3.8250786548104863 5.833902722848451 -1 0 0
213 1 3.590918604567729 0.7221790898383048 8.209081573059418 0 0 0
233 1 0.7785876911863947 0.94083563575841 6.6290330498903725 0 0 0
9 1 6.093735444543987 2.8305603214249446 6.95963623099308 0 0 0
10 1 7.020362273487183 3.4955928373232728 5.14766128488945 0 0 0
61 1 7.295685430354231 1.4493082736300547 5.798622190961483 0 0 0
81 1 5.077254730591022 1.9565192276422099 8.829163875432764 0 0 0
1664 1 0.2010171384666304 21.2514397897833 9.654964938207943 1 0 0
578 1 12.453456864238277 24.689663838339875 5.01582713562296 0 0 0
1648 1 21.502672423185757 18.94215971517463 5.3945140901896576 0 0 0
208 1 7.156989731609012 1.2477925957542957 8.058481727952655 0 0 0
134 1 1.100504375227793 3.203770446844234 9.503759500611574 0 0 0
231 1 5.238844143156465 0.9646674065689244 6.872211212223777 0 0 0
3 1 12.008633660541827 1.9540580847802198 5.221147179800368 0 0 0
30 1 10.680008325179651 1.378712033250493 8.255215184543804 0 0 0
43 1 8.896474036306188 0.3535793065073856 9.223567086559612 0 0 0
64 1 12.265456835968894 0.0818513168906172 8.333952561204843 0 0 0
73 1 8.931641945275882 2.3946538890829236 8.750135001944692 0 0 0
83 1 10.392835041527025 2.992455438241843 6.7896038563672425 0 0 0
105 1 8.965569379683924 0.9503830614217676 7.151995864103294 0 0 0
151 1 10.819306741965008 3.375984430677688 9.075329145425417 0 0 0
170 1 8.234187264473821 3.0467438352195817 6.970756839100219 0 0 0
224 1 10.171858417035288 24.191168866404993 7.754668353905226 0 -1 0
229 1 12.392271403203257 2.5431710919844375 7.625665963036374 0 0 0
239 1 11.035855205734153 0.6160368211507381 6.402677775178048 0 0 0
646 1 1.100504375061387 15.703770446885963 9.503759500638536 0 0 0
250 1 12.182150722387924 1.7196225412529096 9.669574311760297 0 0 0
1603 1 21.699776008526825 22.798018438435722 6.523775495070182 0 0 0
1059 1 15.57351566603988 1.1181397161168831 6.032778234167859 0 0 0
1112 1 16.457653092649803 2.7160473253360213 6.88426433321885 0 0 0
1154 1 13.540986961619005 4.390018714379312 7.625225828638724 0 0 0
1156 1 14.573133077770347 2.2154572313729823 7.862107218461456 0 0 0
1593 1 23.28125272330706 23.671437223158083 5.556881426126112 0 0 0
1587 1 21.350451308296332 24.733326303523643 5.602773624650992 0 0 0
1209 1 14.236836441011537 2.80982488007372 5.964107711202716 0 0 0
1212 1 14.096869737291453 0.9127033991915864 9.364775540877242 0 0 0
1226 1 12.301494021137382 3.825078654809923 5.833902722842598 0 0 0
1237 1 16.090918604555057 0.7221790898187375 8.209081573050636 0 0 0
1257 1 13.278587691206484 0.9408356357729898 6.62903304988525 0 0 0
1033 1 18.593735444527095 2.8305603214274684 6.959636231003565 0 0 0
1034 1 19.520362273470546 3.495592837328882 5.147661284894901 0 0 0
1085 1 19.795685430344786 1.4493082736435714 5.798622190944623 0 0 0
1105 1 17.57725473055765 1.95651922764013 8.829163875436434 0 0 0
1584 1 23.809246170062192 22.899126040799377 8.761233059981372 0 0 0
1602 1 24.953456864217653 24.68966383832641 5.015827135623698 0 0 0
624 1 9.00267242318663 18.942159715177564 5.394514090204219 0 0 0
1232 1 19.656989731589235 1.2477925957551719 8.058481727946743 0 0 0
1158 1 13.600504375232862 3.203770446850678 9.503759500623827 0 0 0
1255 1 17.738844143144007 0.9646674065687537 6.872211212220873 0 0 0
1027 1 24.508633660512064 1.954058084767621 5.221147179815387 0 0 0
1054 1 23.180008325154965 1.3787120332394285 8.25521518456011 0 0 0
1067 1 21.39647403628569 0.35357930650611613 9.223567086579587 0 0 0
1088 1 24.765456835955543 0.0818513168898285 8.33395256121211 0 0 0
1097 1 21.431641945255826 2.3946538890743083 8.75013500195638 0 0 0
1107 1 22.892835041506544 2.9924554382352975 6.7896038563823815 0 0 0
1129 1 21.46556937966306 0.9503830614111212 7.151995864114526 0 0 0
1175 1 23.319306741939087 3.3759844306635127 9.075329145428425 0 0 0
1194 1 20.73418726445529 3.046743835215597 6.9707568391078665 0 0 0
1248 1 22.67185841701172 24.191168866389916 7.754668353926212 0 -1 0
1253 1 24.892271403186264 2.543171091975312 7.625665963037277 0 0 0
1263 1 23.53585520571463 0.616036821130022 6.402677775191993 0 0 0
1554 1 19.9670541629975 11.630164117156868 9.918770547057797 0 0 0
1274 1 24.682150722359786 1.7196225412562638 9.669574311765608 0 0 0
15 1 3.134949539352998 3.6390267410584913 8.939119860773705 0 0 0
26 1 1.8468753973435763 7.422341473576046 9.12711714537421 0 0 0
49 1 0.21696897990591002 7.864495535588582 5.940484094862842 0 0 0
102 1 2.3077872111320574 8.31532412691023 6.223011489190225 0 0 0
109 1 3.673459203463244 5.8970533391498074 8.428616895515862 0 0 0
113 1 24.745073858484222 4.870143895830632 9.496705461978394 -1 0 0
121 1 1.871710251280014 5.322715851098734 9.379254360530082 0 0 0
127 1 3.5038639752125142 7.865886657642491 7.921206913282779 0 0 0
153 1 1.6740506531701371 4.933733177642831 5.478070875453362 0 0 0
530 1 7.467054162978649 11.630164117155623 9.918770547052008 0 0 0
235 1 3.7804221722368307 6.5338454276772415 6.328220350100876 0 0 0
246 1 3.031046549143153 4.544392245995782 7.013399743868729 0 0 0
249 1 1.811897548867195 6.468109011453846 7.187282642184135 0 0 0
1 1 6.8000098259010135 3.102374083053005 9.244417624520903 0 0 0
2 1 5.063949767073475 4.657677257206107 6.113892979407888 0 0 0
62 1 7.652177991415206 6.1284347049221735 8.934425313704796 0 0 0
101 1 7.595750534032379 7.030348083607763 7.022803956543754 0 0 0
115 1 7.198132877726381 5.429556947301225 5.791437699916369 0 0 0
120 1 6.0327906592476195 5.079375959996807 9.648543683483323 0 0 0
125 1 5.70359498079699 6.932968672968219 5.482522634215531 0 0 0
150 1 5.644711712433746 6.097336979565141 7.541868941229878 0 0 0
200 1 4.947392088509672 4.122988360123429 8.22918909217108 0 0 0
201 1 7.013543366293478 4.577070415961171 7.659301273464157 0 0 0
216 1 5.672738467590149 8.153947616017655 7.297070917781019 0 0 0
24 1 10.276868203762092 5.496435504038557 8.998400749407939 0 0 0
37 1 12.535550923626834 5.918968291225601 6.133843905682351 0 0 0
58 1 10.756892524347185 6.719880252798558 7.055501956579452 0 0 0
68 1 9.247292851037626 7.374198319680283 8.598557914106925 0 0 0
86 1 8.546793778689386 4.302348204763177 9.16317827883316 0 0 0
99 1 12.476208583042865 6.704260715758217 8.274742231270473 0 0 0
1552 1 21.515223618978094 22.179733120629308 8.715837528409761 0 0 0
175 1 9.06054564892962 5.252818313503585 7.268744321424119 0 0 0
204 1 10.706714102778236 5.160260980691005 5.584121155807549 0 0 0
223 1 11.435909830671411 4.685446241928648 7.54344819327949 0 0 0
227 1 9.462466478947547 8.23600179688868 6.686255052209647 0 0 0
1039 1 15.634949539339395 3.6390267410862562 8.939119860782643 0 0 0
1050 1 14.346875397343005 7.422341473594011 9.127117145366663 0 0 0
1073 1 12.716968979887472 7.864495535570668 5.940484094872166 0 0 0
1126 1 14.80778721113418 8.315324126909731 6.223011489195971 0 0 0
1133 1 16.17345920345699 5.89705333916916 8.428616895520667 0 0 0
1137 1 12.245073858496543 4.8701438958514585 9.496705461967723 0 0 0
1145 1 14.371710251277701 5.322715851123041 9.379254360540545 0 0 0
1151 1 16.003863975217964 7.865886657653311 7.92120691327877 0 0 0
1177 1 14.174050653192667 4.933733177654167 5.478070875454949 0 0 0
18 1 7.467054163157946 24.130164117100627 9.918770547170855 0 -1 0
1259 1 16.28042217223317 6.533845427676014 6.328220350101416 0 0 0
1270 1 15.531046549153654 4.5443922460022605 7.013399743878856 0 0 0
1273 1 14.311897548867407 6.468109011459546 7.187282642185591 0 0 0
1025 1 19.300009825871857 3.1023740830510875 9.244417624522105 0 0 0
1026 1 17.56394976707929 4.657677257210455 6.113892979421996 0 0 0
1086 1 20.15217799141826 6.128434704925942 8.934425313708694 0 0 0
1125 1 20.095750534039702 7.030348083611223 7.022803956551669 0 0 0
1139 1 19.698132877731208 5.429556947297834 5.7914376999349315 0 0 0
1144 1 18.532790659244828 5.079375960004322 9.648543683486029 0 0 0
1149 1 18.20359498080445 6.932968672973415 5.482522634230307 0 0 0
1174 1 18.144711712433168 6.09733697957253 7.541868941238405 0 0 0
1224 1 17.447392088497033 4.122988360132785 8.22918909218203 0 0 0
1225 1 19.513543366280324 4.5770704159597155 7.659301273476996 0 0 0
1240 1 18.172738467601203 8.153947616022688 7.297070917788006 0 0 0
1048 1 22.77686820375226 5.4964355040312345 8.9984007494217 0 0 0
1061 1 0.0355509236129609 5.918968291196271 6.133843905694349 1 0 0
1082 1 23.256892524344554 6.719880252795426 7.055501956594127 0 0 0
1092 1 21.747292851040648 7.374198319690163 8.598557914121384 0 0 0
1110 1 21.04679377866484 4.302348204757572 9.163178278847726 0 0 0
1123 1 24.976208583042922 6.7042607157471155 8.274742231274752 0 0 0
1778 1 19.214152837138638 22.557568279349294 8.788304580359773 0 0 0
1199 1 21.56054564892368 5.25281831348704 7.2687443214384375 0 0 0
1228 1 23.206714102771148 5.1602609806845345 5.584121155830137 0 0 0
1247 1 23.935909830665615 4.685446241919021 7.543448193283308 0 0 0
1251 1 21.962466478958973 8.236001796892182 6.68625505221903 0 0 0
52 1 0.9430865203680381 9.873792956631592 5.648736051591446 0 0 0
78 1 2.3233171905515495 10.238076770024541 7.214141854441524 0 0 0
97 1 0.8843277655925639 10.724780176811104 8.813663103361051 0 0 0
133 1 2.495935085308774 9.394118960461997 9.11514797965832 0 0 0
146 1 0.6974148697277177 8.87615953636689 7.671096792516205 0 0 0
158 1 1.964451302769453 12.16932416284492 7.726266302494219 0 0 0
174 1 4.111248564888552 9.396074226003044 6.612187181286169 0 0 0
179 1 1.8786503593163757 11.806166421900596 5.67857474198893 0 0 0
212 1 4.015479345874002 11.735964091047899 6.465051092071465 0 0 0
234 1 4.753286938736992 9.185682477154128 8.830354042479975 0 0 0
23 1 5.897642029316532 12.119249243169163 8.427046779635077 0 0 0
39 1 6.73001210864168 12.062744034603252 6.274763807592621 0 0 0
45 1 7.874184159647549 8.283785918838062 5.238278811346968 0 0 0
1042 1 19.967054163140084 24.130164117085485 9.91877054718731 0 -1 0
87 1 7.541682648978809 9.234737138805432 7.085670207768094 0 0 0
92 1 4.023877059891667 11.022910556388101 8.37537157957005 0 0 0
142 1 7.11934884333912 8.117848091513167 8.993127274002978 0 0 0
1790 1 21.929148426436587 14.366087982856463 5.306870869332081 0 0 0
189 1 5.784675931015683 9.031307509296202 5.345745019855141 0 0 0
195 1 5.771253877343379 10.458386534316947 7.017352017753676 0 0 0
232 1 7.972112524314783 11.464171253574097 7.783588498617362 0 0 0
242 1 6.714152837028373 10.057568279316083 8.788304580359565 0 0 0
16 1 9.015223618827806 9.679733120663123 8.715837528384597 0 0 0
48 1 11.30924616979185 10.399126040761852 8.761233059928882 0 0 0
51 1 8.85045130818319 12.233326303470433 5.602773624620272 0 0 0
57 1 10.781252723219287 11.17143722305229 5.556881426030728 0 0 0
67 1 9.199776008466202 10.298018438381966 6.523775495031495 0 0 0
128 1 12.701017138299948 8.751439789691768 9.654964938177582 0 0 0
135 1 11.038066634390573 8.387290730948576 8.311963584537784 0 0 0
1768 1 20.4721125244933 23.964171253602338 7.783588498737963 0 0 0
178 1 12.50507899942759 11.158947815384368 6.935904270324843 0 0 0
211 1 11.306174955118623 9.381635901597326 6.539174460545685 0 0 0
1076 1 13.443086520376491 9.873792956641035 5.648736051592899 0 0 0
1102 1 14.823317190559079 10.238076770034871 7.214141854439035 0 0 0
1121 1 13.3843277656029 10.724780176823739 8.81366310336717 0 0 0
1157 1 14.995935085314926 9.39411896048134 9.115147979664089 0 0 0
1170 1 13.197414869727444 8.876159536386576 7.671096792524514 0 0 0
1182 1 14.464451302778647 12.169324162858372 7.726266302510019 0 0 0
1198 1 16.611248564892396 9.39607422600785 6.612187181287725 0 0 0
1203 1 14.378650359317094 11.806166421900484 5.678574742002045 0 0 0
1236 1 16.515479345891627 11.735964091049691 6.465051092083743 0 0 0
1258 1 17.253286938746342 9.185682477163422 8.830354042483439 0 0 0
1047 1 18.397642029331134 12.119249243167413 8.427046779637246 0 0 0
1063 1 19.230012108635158 12.062744034599985 6.274763807602782 0 0 0
1069 1 20.374184159659624 8.283785918844183 5.238278811361532 0 0 0
1670 1 13.600504375068814 15.703770446874998 9.503759500626911 0 0 0
1111 1 20.041682648995607 9.234737138812303 7.085670207785145 0 0 0
1116 1 16.523877059890165 11.022910556398843 8.375371579586954 0 0 0
1166 1 19.619348843348515 8.117848091516704 8.993127274006273 0 0 0
766 1 9.429148426433917 14.366087982844675 5.306870869326613 0 0 0
1213 1 18.284675931026424 9.031307509293386 5.345745019863915 0 0 0
1219 1 18.271253877352837 10.45838653430904 7.017352017770966 0 0 0
1256 1 20.47211252432298 11.464171253583697 7.783588498620979 0 0 0
1266 1 19.21415283704146 10.05756827931604 8.78830458037244 0 0 0
1040 1 21.515223618830394 9.679733120685961 8.715837528412072 0 0 0
1072 1 23.809246169783933 10.399126040766028 8.761233059936508 0 0 0
1075 1 21.350451308187427 12.233326303476757 5.602773624646019 0 0 0
1081 1 23.281252723225542 11.171437223064812 5.556881426045983 0 0 0
1091 1 21.699776008487717 10.298018438381876 6.523775495052798 0 0 0
1152 1 0.20101713829971551 8.75143978968289 9.654964938184273 1 0 0
1159 1 23.538066634391896 8.38729073095708 8.31196358454042 0 0 0
1731 1 18.2712538774854 22.958386534331222 7.017352017752262 0 0 0
1202 1 0.005078999424416253 11.15894781538979 6.935904270331588 1 0 0
1235 1 23.806174955140637 9.381635901583207 6.5391744605376045 0 0 0
1725 1 18.28467593111614 21.531307509275088 5.345745019928613 0 0 0
547 1 3.0735156658798126 13.618139716062004 6.032778234178378 0 0 0
600 1 3.9576530925367317 15.216047325324041 6.884264333133457 0 0 0
642 1 1.0409869615688894 16.890018714353022 7.625225828597194 0 0 0
644 1 2.073133077650144 14.715457231490882 7.862107218423326 0 0 0
1278 1 21.929148426423207 1.866087982890908 5.30687086931808 0 0 0
1678 1 19.619348843512608 20.61784809154873 8.993127274138995 0 0 0
697 1 1.736836440937922 15.309824880051652 5.964107711108381 0 0 0
700 1 1.5968697371541896 13.412703399256916 9.364775540805354 0 0 0
714 1 24.801494021047198 16.32507865480219 5.833902722827104 -1 0 0
725 1 3.590918604300633 13.222179089825792 8.20908157299718 0 0 0
745 1 0.7785876910927447 13.440835635786604 6.629033049833917 0 0 0
521 1 6.093735444453609 15.330560321374808 6.959636231028644 0 0 0
522 1 7.020362273327479 15.995592837271628 5.147661284885114 0 0 0
573 1 7.295685430275999 13.949308273618692 5.798622190814131 0 0 0
593 1 5.077254730296031 14.456519227652695 8.82916387544861 0 0 0
1628 1 16.523877060099224 23.522910556387213 8.375371579616237 0 0 0
1090 1 24.953456864073363 12.189663838322884 5.015827135544933 0 0 0
1558 1 21.544541819233178 16.607972465593736 5.415178326764762 0 0 0
720 1 7.156989731439412 13.747792595707356 8.058481727914709 0 0 0
1136 1 21.50267242327075 6.442159715276025 5.394514090145757 0 0 0
743 1 5.2388441429873795 13.464667406595265 6.872211212248776 0 0 0
515 1 12.008633660362023 14.454058084807409 5.221147179708969 0 0 0
542 1 10.680008325037164 13.878712033209093 8.255215184440912 0 0 0
555 1 8.896474036183173 12.85357930644538 9.223567086464417 0 0 0
576 1 12.265456835813813 12.581851316828807 8.333952561125704 0 0 0
585 1 8.931641945116583 14.89465388907897 8.750135001906237 0 0 0
595 1 10.392835041419552 15.492455438278016 6.7896038563833425 0 0 0
617 1 8.965569379509539 13.450383061408678 7.151995864039812 0 0 0
663 1 10.819306741842095 15.875984430620163 9.075329145420316 0 0 0
682 1 8.23418726433394 15.546743835176477 6.97075683904148 0 0 0
736 1 10.171858416857805 11.691168866422776 7.7546683538016765 0 0 0
741 1 12.392271403083283 15.043171091962876 7.625665963005885 0 0 0
751 1 11.035855205624891 13.116036821078778 6.402677775076091 0 0 0
112 1 9.002672423271523 6.442159715272025 5.394514090124712 0 0 0
762 1 12.182150722248679 14.21962254119683 9.669574311693793 0 0 0
1623 1 20.041682649121288 21.73473713877452 7.0856702078255065 0 0 0
1571 1 15.573515665884573 13.618139716053358 6.0327782341943275 0 0 0
1624 1 16.457653092535914 15.216047325328919 6.884264333127021 0 0 0
1666 1 13.540986961553905 16.890018714356074 7.625225828584124 0 0 0
1668 1 14.573133077639625 14.715457231481304 7.86210721842188 0 0 0
1046 1 21.54454181932007 4.107972465668643 5.415178326809436 0 0 0
1581 1 20.37418415972859 20.783785918838074 5.238278811417701 0 0 0
1721 1 14.236836440935447 15.309824880045994 5.964107711109513 0 0 0
1724 1 14.096869737152709 13.41270339925816 9.364775540822809 0 0 0
1738 1 12.301494021042956 16.325078654800464 5.833902722820229 0 0 0
1749 1 16.09091860430582 13.22217908984144 8.209081573002713 0 0 0
1769 1 13.278587691080151 13.440835635778376 6.629033049838233 0 0 0
1545 1 18.593735444465946 15.330560321382222 6.959636231026454 0 0 0
1546 1 19.520362273337962 15.995592837273934 5.147661284887522 0 0 0
1597 1 19.79568543028758 13.94930827361903 5.798622190835738 0 0 0
1617 1 17.577254730315403 14.456519227659985 8.829163875449298 0 0 0
1575 1 19.230012108845028 24.562744034586437 6.274763807628938 0 0 0
66 1 12.453456864067636 12.189663838314956 5.0158271355522706 0 0 0
534 1 9.044541819220504 16.60797246558815 5.4151783267581814 0 0 0
1744 1 19.656989731459173 13.747792595715305 8.058481727930177 0 0 0
1659 1 15.164330057399042 24.085562146629094 9.78617309190296 0 0 0
1767 1 17.73884414299941 13.464667406606214 6.872211212260781 0 0 0
1539 1 24.508633660377676 14.454058084812841 5.221147179704099 0 0 0
1566 1 23.180008325054533 13.87871203322052 8.255215184458981 0 0 0
1579 1 21.396474036189073 12.85357930645906 9.223567086475086 0 0 0
1600 1 24.76545683581879 12.581851316825388 8.33395256112402 0 0 0
1609 1 21.431641945153064 14.894653889094933 8.750135001916677 0 0 0
1619 1 22.892835041435127 15.492455438288042 6.789603856394968 0 0 0
1641 1 21.465569379527928 13.45038306143419 7.151995864054419 0 0 0
1687 1 23.31930674188379 15.875984430636656 9.075329145440927 0 0 0
1706 1 20.734187264348158 15.546743835187758 6.970756839058581 0 0 0
1760 1 22.671858416865547 11.691168866445375 7.754668353807332 0 0 0
1765 1 24.89227140309749 15.043171091963666 7.6256659630162 0 0 0
1775 1 23.535855205640086 13.116036821102151 6.402677775084857 0 0 0
22 1 9.044541819334675 4.107972465678023 5.415178326799812 0 0 0
1786 1 24.682150722260392 14.219622541194125 9.669574311709422 0 0 0
527 1 3.134949539215089 16.139026741142754 8.93911986082644 0 0 0
538 1 1.846875397427015 19.92234147364665 9.127117145267325 0 0 0
561 1 0.21696897982337815 20.364495535629747 5.940484095198356 0 0 0
614 1 2.3077872111409334 20.815324126994135 6.223011489413057 0 0 0
621 1 3.673459203432486 18.39705333909044 8.428616895598154 0 0 0
625 1 24.745073858399667 17.370143895989504 9.496705461944963 -1 0 0
633 1 1.8717102511860224 17.82271585116209 9.379254360544747 0 0 0
639 1 3.503863975453074 20.365886657556487 7.921206913314628 0 0 0
665 1 1.6740506531001975 17.43373317765316 5.478070875447302 0 0 0
635 1 2.6643300574192654 24.085562146675326 9.786173091928937 0 0 0
747 1 3.780422172205058 19.03384542758946 6.3282203501364185 0 0 0
758 1 3.031046549101834 17.044392245944504 7.013399743857415 0 0 0
761 1 1.8118975488714668 18.968109011394212 7.18728264217859 0 0 0
513 1 6.800009825692192 15.60237408295237 9.244417624595618 0 0 0
514 1 5.063949767010463 17.157677257165478 6.113892979433733 0 0 0
574 1 7.6521779913894 18.62843470490399 8.934425313701926 0 0 0
613 1 7.595750534081282 19.530348083569407 7.022803956576809 0 0 0
627 1 7.19813287766135 17.92955694717939 5.791437700038617 0 0 0
632 1 6.032790659219223 17.57937595995115 9.648543683594388 0 0 0
637 1 5.703594980788279 19.432968672916644 5.482522634308669 0 0 0
662 1 5.644711712386048 18.597336979544526 7.541868941257732 0 0 0
712 1 4.9473920884118465 16.622988360095242 8.229189092216732 0 0 0
713 1 7.013543366174301 17.077070415868583 7.659301273600096 0 0 0
728 1 5.672738467783509 20.653947616023824 7.297070917852024 0 0 0
536 1 10.276868203566163 17.996435503890268 8.998400749490537 0 0 0
549 1 12.535550923508234 18.41896829121784 6.133843905559903 0 0 0
570 1 10.756892524242016 19.21988025261982 7.05550195673376 0 0 0
580 1 9.24729285106856 19.874198319651565 8.598557914055887 0 0 0
598 1 8.546793778460874 16.802348204657495 9.163178279034405 0 0 0
611 1 12.476208583107036 19.204260715814545 8.274742231177775 0 0 0
1559 1 18.397642029560302 24.6192492431568 8.427046779653619 0 0 0
687 1 9.060545648825997 17.752818313243143 7.268744321500054 0 0 0
716 1 10.706714102637587 17.660260980577874 5.58412115589688 0 0 0
735 1 11.435909830683435 17.185446241921614 7.543448193325727 0 0 0
739 1 9.462466479092999 20.736001796897053 6.686255052156321 0 0 0
1551 1 15.634949539227783 16.139026741129214 8.939119860812307 0 0 0
1562 1 14.346875397419977 19.92234147361598 9.12711714527578 0 0 0
1585 1 12.716968979841777 20.364495535639946 5.940484095171076 0 0 0
1638 1 14.807787211143989 20.815324127003343 6.223011489391777 0 0 0
1645 1 16.173459203422503 18.397053339080642 8.428616895588442 0 0 0
1649 1 12.245073858375031 17.370143895949674 9.496705461955983 0 0 0
1657 1 14.371710251176198 17.822715851133115 9.379254360533936 0 0 0
1663 1 16.003863975437255 20.36588665755356 7.921206913308414 0 0 0
1689 1 14.174050653083643 17.43373317765116 5.47807087544153 0 0 0
1147 1 15.164330057113746 11.585562146550561 9.786173091842631 0 0 0
1771 1 16.28042217220159 19.033845427594006 6.328220350128256 0 0 0
1782 1 15.53104654908956 17.04439224594225 7.013399743844126 0 0 0
1785 1 14.311897548860834 18.96810901140116 7.18728264216645 0 0 0
1537 1 19.30000982571332 15.60237408295805 9.244417624586731 0 0 0
1538 1 17.563949767003862 17.157677257169123 6.113892979419131 0 0 0
1598 1 20.152177991389426 18.628434704910873 8.934425313705365 0 0 0
1637 1 20.095750534068475 19.53034808356706 7.022803956575697 0 0 0
1651 1 19.698132877652704 17.929556947190964 5.7914377000188795 0 0 0
1656 1 18.532790659230102 17.579375959947683 9.648543683589526 0 0 0
1661 1 18.203594980775584 19.432968672913997 5.482522634295164 0 0 0
1686 1 18.14471171237698 18.597336979544878 7.541868941248567 0 0 0
1736 1 17.44739208841939 16.6229883600983 8.229189092206475 0 0 0
1737 1 19.513543366183622 17.077070415886148 7.659301273585688 0 0 0
1752 1 18.172738467768262 20.65394761602383 7.297070917849655 0 0 0
1560 1 22.776868203577052 17.99643550389824 8.998400749483329 0 0 0
1573 1 0.035550923524592 18.418968291229657 6.133843905558918 1 0 0
1594 1 23.25689252425246 19.219880252631846 7.0555019567264505 0 0 0
1604 1 21.747292851070437 19.87419831964359 8.598557914040109 0 0 0
1622 1 21.04679377847177 16.802348204672047 9.163178279021393 0 0 0
1635 1 24.97620858311385 19.20426071584382 8.274742231175697 0 0 0
1770 1 17.253286938880372 21.68568247712268 8.830354042541922 0 0 0
1711 1 21.56054564883535 17.752818313269422 7.268744321493128 0 0 0
1740 1 23.206714102644874 17.660260980589527 5.584121155885954 0 0 0
1759 1 23.935909830696545 17.185446241932436 7.543448193331803 0 0 0
1763 1 21.962466479084092 20.736001796893515 6.686255052147055 0 0 0
564 1 0.9430865203354866 22.373792956658892 5.648736051614656 0 0 0
590 1 2.323317190683237 22.738076770139337 7.214141854447633 0 0 0
609 1 0.8843277658997413 23.224780177064304 8.813663103489494 0 0 0
645 1 2.495935085501178 21.894118960513733 9.115147979635049 0 0 0
658 1 0.6974148697737242 21.376159536673043 7.671096792605674 0 0 0
670 1 1.9644513030327004 24.669324162977876 7.72626630249544 0 0 0
686 1 4.111248565000264 21.896074226007116 6.61218718141987 0 0 0
691 1 1.878650359452232 24.306166421899455 5.678574741982893 0 0 0
724 1 4.015479346031974 24.235964091074308 6.465051092115889 0 0 0
746 1 4.753286938902153 21.68568247713608 8.830354042541819 0 0 0
535 1 5.8976420295860565 24.619249243148293 8.427046779639682 0 0 0
551 1 6.7300121088398335 24.56274403456809 6.274763807625216 0 0 0
557 1 7.874184159738546 20.78378591884492 5.238278811426281 0 0 0
123 1 2.6643300571016195 11.585562146534858 9.78617309180912 0 0 0
599 1 7.541682649140964 21.73473713878732 7.085670207827053 0 0 0
604 1 4.023877060102896 23.52291055640024 8.37537157963714 0 0 0
654 1 7.119348843521296 20.617848091544527 8.993127274129625 0 0 0
254 1 9.429148426423303 1.866087982900408 5.306870869307462 0 0 0
701 1 5.7846759311265155 21.531307509276427 5.34574501993419 0 0 0
707 1 5.771253877488713 22.958386534317345 7.0173520177736455 0 0 0
744 1 7.972112524509298 23.964171253605127 7.783588498722036 0 0 0
754 1 6.7141528371726045 22.557568279345013 8.7883045803754 0 0 0
528 1 9.015223618994256 22.179733120641014 8.715837528412651 0 0 0
560 1 11.309246170046363 22.899126040791042 8.761233059976632 0 0 0
563 1 8.850451308311257 24.73332630352186 5.60277362464644 0 0 0
569 1 10.781252723333715 23.671437223158495 5.556881426116903 0 0 0
579 1 9.199776008553993 22.798018438436074 6.52377549506404 0 0 0
640 1 12.701017138460447 21.25143978975717 9.65496493820643 0 0 0
647 1 11.038066634476696 20.887290730950475 8.311963584489321 0 0 0
1748 1 16.515479346018896 24.235964091078056 6.4650510921021045 0 0 0
690 1 12.505078999609497 23.65894781547567 6.935904270427753 0 0 0
723 1 11.3061749551648 21.881635901793754 6.5391744606050395 0 0 0
1588 1 13.443086520316701 22.373792956659685 5.648736051600647 0 0 0
1614 1 14.823317190664737 22.73807677012326 7.214141854444753 0 0 0
1633 1 13.384327765875843 23.224780177032166 8.813663103481 0 0 0
1669 1 14.995935085484687 21.89411896048362 9.115147979628022 0 0 0
1682 1 13.197414869775578 21.37615953663693 7.6710967925916 0 0 0
1694 1 14.46445130301662 24.669324162958613 7.726266302490172 0 0 0
1710 1 16.611248564995776 21.896074226011798 6.612187181420574 0 0 0
1715 1 14.378650359464059 24.306166421896062 5.67857474197915 0 0 0
143 1 5.28859229496089 7.036111776068647 9.317516692622924 0 0 0
1167 1 17.78859229496149 7.036111776077722 9.317516692625766 0 0 0
655 1 5.288592295087329 19.536111776046514 9.31751669264548 0 0 0
1679 1 17.78859229508342 19.536111776040176 9.317516692643753 0 0 0
1779 1 23.28442116748779 12.248279732043336 9.967353125376684 0 0 0
1629 1 17.019442523162258 12.679756437302277 9.983539060255984 0 0 0
755 1 10.784421167488123 12.248279732050538 9.967353125365522 0 0 0
236 1 11.052076986264149 7.072701827999238 9.999670687744274 0 0 0
1260 1 23.5520769862639 7.072701827993705 9.999670687739417 0 0 0
605 1 4.519442523135299 12.679756437297053 9.983539060266931 0 0 0
93 1 4.51944252357431 0.17975643727879093 9.983539060260513 0 0 0
1267 1 23.284421167612233 24.748279732141672 9.967353125445896 0 -1 0
243 1 10.784421167617205 24.748279732125678 9.967353125437098 0 -1 0
748 1 11.05207698622197 19.572701827920973 9.99967068763773 0 0 0
1772 1 23.55207698622197 19.572701827932317 9.999670687647946 0 0 0
1117 1 17.019442523509028 0.17975643727854707 9.983539060278448 0 0 0
76 1 7.526659934882052 10.350948545462861 5.087528874375274 0 0 0
1100 1 20.026659934893818 10.35094854546853 5.08752887439755 0 0 0
588 1 7.52665993500669 22.850948545462305 5.087528874405636 0 0 0
1612 1 20.026659934989823 22.850948545460195 5.087528874405626 0 0 0
32 1 2.7153770987806154 3.7854301987245575 11.059217937458492 0 0 0
1708 1 17.337878132856112 15.832588353289687 10.366519884717992 0 0 0
156 1 1.2271616841196373 2.0031718265671614 11.246472606775098 0 0 0
169 1 1.990823387791413 24.928760600951605 11.513730371211842 0 -1 0
226 1 1.7325239134701342 3.17477373592666 12.853277145439094 0 0 0
335 1 1.2212037319825773 0.8788773455771045 13.322321704300425 0 0 0
346 1 3.0734263238002306 1.4599059465149946 12.209534138049966 0 0 0
2012 1 24.161955221180705 23.35055999349387 14.023635222987464 0 0 0
418 1 0.7170987527756737 3.9939622103916377 14.695601423061683 0 0 0
424 1 3.065745408977503 24.725358724103753 13.54375253771965 0 -1 0
466 1 2.940797963986604 3.9616595337048355 14.26184407074605 0 0 0
684 1 4.837878132837401 15.832588353291493 10.36651988472411 0 0 0
29 1 6.201826514173121 24.564760535638488 11.559313938144236 0 -1 0
89 1 7.564919191044224 4.517116587654812 11.062111072912103 0 0 0
94 1 6.432592074508761 2.941068143775992 11.766464225785018 0 0 0
197 1 5.035496383214304 1.4481277243531867 11.505486309359163 0 0 0
240 1 8.155462618224036 2.326613752206696 10.659768215271413 0 0 0
263 1 5.712767716901301 2.430656371950532 13.78098712351069 0 0 0
298 1 6.633860799426806 0.5262210874650144 14.71074209984659 0 0 0
316 1 4.175065269026712 3.160661929060731 12.477384844050343 0 0 0
417 1 7.040305400118628 1.1080835504095328 12.56880054131124 0 0 0
423 1 7.194764863792131 4.125364362286434 13.488552284296638 0 0 0
463 1 4.941872475989089 0.5391834848596231 13.372971608756727 0 0 0
6 1 8.703403085814406 0.38596378168294654 11.316454390697922 0 0 0
69 1 11.792275164704924 3.154129409841564 11.19705919126241 0 0 0
70 1 10.254800060529272 1.6757914332288257 12.440735244879974 0 0 0
163 1 10.194878306422492 1.717121682072705 10.404875059741634 0 0 0
191 1 9.67586125683356 3.7547113433241415 10.865877925097303 0 0 0
244 1 8.525064330614203 2.800241646051367 12.593711593441329 0 0 0
245 1 11.981374881027495 0.9247782909110075 11.622358812893848 0 0 0
275 1 7.840433463428245 2.1888937165221183 14.413935911155209 0 0 0
312 1 11.602280168119655 0.5608667780803568 13.671633771773529 0 0 0
321 1 12.219731030366956 2.4639618681124156 13.337261404990992 0 0 0
607 1 3.222309942578862 14.37998405020755 10.13873375770277 0 0 0
387 1 12.260300537936793 4.491295416660947 12.962711527332452 0 0 0
408 1 8.857083712945379 0.557585351210826 13.486010211338428 0 0 0
432 1 10.436319702295023 3.6747098834372087 12.892951948643121 0 0 0
1056 1 15.215377098772107 3.7854301987439816 11.059217937467661 0 0 0
1631 1 15.7223099425904 14.37998405020669 10.138733757699356 0 0 0
1180 1 13.727161684125928 2.0031718265484426 11.246472606777187 0 0 0
1193 1 14.49082338780822 24.928760600931923 11.51373037119459 0 -1 0
1250 1 14.232523913464032 3.1747737359258608 12.853277145437787 0 0 0
1359 1 13.721203731973203 0.8788773455588167 13.322321704289658 0 0 0
1370 1 15.573426323798154 1.459905946494104 12.209534138047383 0 0 0
1969 1 16.3422740604346 18.32412327668732 14.823343104545003 0 0 0
1442 1 13.217098752768132 3.9939622103751655 14.695601423062019 0 0 0
1448 1 15.565745408969107 24.725358724086846 13.543752537735122 0 -1 0
1490 1 15.440797963960266 3.961659533702961 14.261844070768257 0 0 0
1196 1 17.337878133023366 3.3325883532531573 10.366519884653522 0 0 0
1053 1 18.701826514135966 24.564760535654298 11.55931393813284 0 -1 0
1113 1 20.064919191034406 4.5171165876692 11.06211107292492 0 0 0
1118 1 18.9325920744852 2.941068143789864 11.766464225806663 0 0 0
1221 1 17.535496383198602 1.4481277243652464 11.505486309346914 0 0 0
1264 1 20.655462618183744 2.326613752224037 10.659768215270393 0 0 0
1287 1 18.212767716875234 2.4306563719445267 13.780987123551675 0 0 0
1322 1 19.133860799411877 0.5262210874528275 14.710742099828838 0 0 0
1340 1 16.675065269009956 3.160661929052036 12.477384844070002 0 0 0
1441 1 19.540305400077152 1.1080835504217923 12.568800541310583 0 0 0
1447 1 19.694764863795545 4.125364362270535 13.48855228427158 0 0 0
1487 1 17.441872475969234 0.5391834848543111 13.372971608748273 0 0 0
1030 1 21.20340308577442 0.38596378170368517 11.316454390717475 0 0 0
1093 1 24.292275164689567 3.15412940983485 11.197059191265566 0 0 0
1094 1 22.754800060527817 1.675791433166899 12.440735244939459 0 0 0
1187 1 22.694878306394283 1.717121682081706 10.404875059786201 0 0 0
1215 1 22.175861256819246 3.7547113433284105 10.865877925097811 0 0 0
1268 1 21.025064330621095 2.8002416460165174 12.593711593437922 0 0 0
1269 1 24.481374881028234 0.9247782909213347 11.6223588129055 0 0 0
1299 1 20.34043346342933 2.18889371651287 14.4139359111494 0 0 0
1336 1 24.10228016815916 0.5608667780598413 13.671633771798195 0 0 0
1345 1 24.71973103037325 2.463961868111811 13.337261404990228 0 0 0
95 1 3.2223099428233777 1.879984050060257 10.138733757635544 0 0 0
1411 1 24.760300537936043 4.4912954166594865 12.962711527331116 0 0 0
1432 1 21.3570837128857 0.5575853511710519 13.486010211352658 0 0 0
1456 1 22.936319702298192 3.674709883390763 12.892951948638819 0 0 0
25 1 0.8781843866149245 4.638321568124561 11.311469111896553 0 0 0
34 1 2.2846622987371568 6.280125266035887 11.354787806306936 0 0 0
46 1 24.725800794210638 8.348182761012444 11.549704647431287 -1 0 0
154 1 3.542069947000495 7.709851328455219 10.232208395534686 0 0 0
192 1 3.969302705194856 5.364766543953124 10.336992452445173 0 0 0
194 1 4.0797632440697456 8.72427135939131 12.469071720043422 0 0 0
267 1 3.620173045007932 5.185948627855022 12.538690698559188 0 0 0
309 1 0.10667873354094058 6.04984131341601 14.553349455056521 0 0 0
454 1 1.1107371585803345 7.632874370825197 13.336000741807569 0 0 0
504 1 1.7241221672209408 5.474598149164001 13.369834445998078 0 0 0
136 1 6.902587594312554 6.700329321006234 10.826441710960014 0 0 0
1864 1 22.076116815448078 22.918478422836845 13.953504807894333 0 0 0
182 1 4.860469724604871 6.84794198357567 11.610456354134941 0 0 0
187 1 8.451904601690718 7.112804772506494 12.46855983858731 0 0 0
252 1 5.5449867273967275 4.84184974959025 11.744248678336302 0 0 0
269 1 7.304226940213732 7.625185665067724 14.382255171856883 0 0 0
270 1 3.0904696298603294 7.138509069474473 13.136377030948319 0 0 0
287 1 5.601520995326213 9.013748976897793 14.17518934032509 0 0 0
296 1 6.432215863712738 5.697342255992055 14.85850371710208 0 0 0
437 1 5.172964775494117 6.978601626840223 13.638676220962285 0 0 0
471 1 5.132048459281718 4.493968660022447 13.833477681283266 0 0 0
494 1 6.812125827591267 6.0153403796339875 12.825935538981458 0 0 0
4 1 10.366409945957237 7.407328585268776 11.961672739117683 0 0 0
8 1 8.571245050307137 8.044037241015392 10.486411946459365 0 0 0
41 1 8.906634363905948 5.071828081831847 12.532614417998918 0 0 0
100 1 11.04140940694594 5.2826209813303056 11.238991934630574 0 0 0
199 1 9.09819358293055 6.02643288486498 10.614270545599103 0 0 0
1119 1 15.722309942809016 1.8799840500947735 10.138733757635858 0 0 0
253 1 12.99631677541784 6.67394665339178 10.4374251196609 0 0 0
310 1 8.63220910809951 6.062952905393723 14.496370520351515 0 0 0
401 1 12.374180707398871 6.39992413180276 12.352409902627892 0 0 0
422 1 9.423701019386868 8.15626769267364 13.971948579718589 0 0 0
1792 1 21.36246631358555 21.741724821794758 12.174061343166589 0 0 0
440 1 11.621456042056733 8.018488423426122 13.70039799784048 0 0 0
459 1 10.556586634437126 5.883517188869695 13.500226543314845 0 0 0
1049 1 13.378184386610652 4.63832156814841 11.311469111897445 0 0 0
1058 1 14.784662298740747 6.28012526605548 11.354787806323575 0 0 0
1070 1 12.225800794204567 8.348182761018707 11.549704647429436 0 0 0
1178 1 16.042069947001437 7.709851328462147 10.232208395526108 0 0 0
1216 1 16.469302705186365 5.36476654396672 10.336992452449264 0 0 0
1218 1 16.579763244061557 8.724271359373288 12.469071720054446 0 0 0
1291 1 16.120173044995276 5.1859486278463 12.538690698567379 0 0 0
1333 1 12.60667873353227 6.04984131340673 14.553349455053239 0 0 0
1478 1 13.610737158588313 7.632874370811414 13.336000741788448 0 0 0
1528 1 14.224122167213332 5.474598149159606 13.369834446007694 0 0 0
1160 1 19.40258759430814 6.7003293210122825 10.826441710954045 0 0 0
1750 1 22.906037824123405 24.318519245680694 12.29394058013514 0 0 0
1206 1 17.36046972459681 6.847941983584467 11.610456354136117 0 0 0
1211 1 20.95190460171311 7.112804772469816 12.46855983859168 0 0 0
1276 1 18.044986727378685 4.841849749603941 11.744248678330337 0 0 0
1293 1 19.804226940223337 7.625185665059527 14.382255171848927 0 0 0
1294 1 15.59046962986778 7.138509069448134 13.13637703097875 0 0 0
1311 1 18.101520995320314 9.01374897688221 14.175189340319879 0 0 0
1320 1 18.932215863741334 5.6973422559819955 14.858503717082176 0 0 0
1461 1 17.67296477549591 6.978601626809825 13.638676220962981 0 0 0
1495 1 17.632048459283688 4.493968660033083 13.833477681268633 0 0 0
1518 1 19.312125827600866 6.015340379624733 12.825935538967522 0 0 0
1028 1 22.866409945970123 7.407328585270061 11.961672739120335 0 0 0
1032 1 21.07124505030486 8.0440372410222 10.486411946473359 0 0 0
1065 1 21.406634363927363 5.071828081798475 12.532614418008663 0 0 0
1124 1 23.541409406943657 5.28262098133057 11.23899193464101 0 0 0
1223 1 21.598193582932595 6.026432884868592 10.614270545605304 0 0 0
1646 1 19.115777384075955 13.576427070869697 10.139698553409325 0 0 0
1277 1 0.496316775412218 6.673946653369728 10.437425119660997 1 0 0
1334 1 21.13220910811762 6.062952905376299 14.496370520356226 0 0 0
1425 1 24.874180707414894 6.399924131802373 12.35240990263131 0 0 0
1446 1 21.923701019393103 8.15626769266056 13.971948579723692 0 0 0
1722 1 24.183597586857708 22.990516702040615 10.88867131324007 0 0 0
1464 1 24.12145604205728 8.018488423439962 13.700397997848198 0 0 0
1483 1 23.056586634446784 5.88351718886539 13.500226543310713 0 0 0
96 1 2.5134066137987885 10.50486042063319 12.393763358575779 0 0 0
108 1 0.34781684006476593 12.097414237460416 10.282210726901734 0 0 0
945 1 3.8422740604311527 18.324123276687523 14.823343104592915 0 0 0
164 1 1.962770788055624 8.398326829548811 11.481370616292512 0 0 0
205 1 1.2743910628213775 10.235423542960454 10.831004295946853 0 0 0
218 1 3.644415637759324 9.862437422661495 10.750977217086698 0 0 0
247 1 4.12442105044634 11.743925705590977 11.788026087137386 0 0 0
306 1 0.5249925605262784 9.644728029208418 12.834039794264093 0 0 0
395 1 1.2877095852855753 11.221538434405613 14.149922899165869 0 0 0
404 1 2.3042631808550564 9.173765167603605 13.944253312975468 0 0 0
465 1 4.20912348109726 10.455110331062661 13.747482294149558 0 0 0
5 1 7.386559867527469 9.76938736103864 10.806175666781275 0 0 0
47 1 8.024172646430245 11.2493375210222 12.411850345630803 0 0 0
91 1 5.377467609785633 10.806621562228376 10.13624868358633 0 0 0
126 1 5.608153588054462 8.640847726826351 10.630870728568937 0 0 0
217 1 6.6660262052037105 8.206788392387628 12.358311508136902 0 0 0
283 1 6.175417512456328 11.366357510300915 13.596093703249947 0 0 0
327 1 7.506841091722405 9.659282872049287 13.74720741852591 0 0 0
677 1 10.391732720927765 21.498002828291707 10.327764468584084 0 0 0
1457 1 16.342274060577605 5.824123276630529 14.823343104515278 0 0 0
433 1 3.8422740605781267 5.824123276661552 14.823343104478706 0 0 0
511 1 5.663132485890038 10.074612587565316 12.147859462748775 0 0 0
28 1 10.824774121642005 9.59539275578198 12.533827353368466 0 0 0
82 1 12.71346747586865 11.635310017374653 12.362703972928427 0 0 0
172 1 4.837878133035794 3.3325883532403644 10.366519884644832 0 0 0
186 1 11.683597586700424 10.490516701989119 10.88867131318825 0 0 0
214 1 10.406037823953556 11.818519245591778 12.293940580078802 0 0 0
256 1 8.862466313469554 9.24172482181393 12.174061343180819 0 0 0
328 1 9.576116815450366 10.418478422700357 13.953504808068322 0 0 0
622 1 6.615777384068472 13.576427070871045 10.139698553400006 0 0 0
476 1 11.66195522104389 10.85055999358592 14.023635222851148 0 0 0
1120 1 15.013406613807371 10.50486042062702 12.393763358570647 0 0 0
1132 1 12.847816840056646 12.097414237465067 10.282210726899804 0 0 0
1134 1 19.115777384327213 1.0764270708897812 10.13969855342735 0 0 0
1188 1 14.462770788063102 8.398326829559624 11.481370616293484 0 0 0
1229 1 13.774391062816107 10.235423542966284 10.831004295950047 0 0 0
1242 1 16.14441563777121 9.862437422658765 10.750977217095594 0 0 0
1271 1 16.62442105044116 11.743925705604301 11.788026087123662 0 0 0
1330 1 13.024992560534791 9.644728029203002 12.834039794264008 0 0 0
1419 1 13.787709585287699 11.221538434395573 14.14992289914923 0 0 0
1428 1 14.804263180860833 9.173765167597098 13.944253312972284 0 0 0
1489 1 16.70912348109815 10.455110331066594 13.747482294150002 0 0 0
1029 1 19.88655986752705 9.769387361055507 10.80617566680792 0 0 0
1071 1 20.524172646437677 11.249337521025907 12.411850345658003 0 0 0
1115 1 17.877467609791527 10.806621562228473 10.13624868359749 0 0 0
1150 1 18.108153588068937 8.640847726824008 10.63087072856982 0 0 0
1241 1 19.166026205223517 8.206788392378872 12.358311508141119 0 0 0
1307 1 18.675417512448014 11.366357510295144 13.596093703256027 0 0 0
1351 1 20.006841091709163 9.659282872049538 13.74720741853861 0 0 0
1189 1 22.891732720731365 8.998002828257029 10.327764468606746 0 0 0
1108 1 21.874827758118816 10.793333037287429 10.58516647421017 0 0 0
84 1 9.374827758111566 10.793333037296746 10.58516647416029 0 0 0
1535 1 18.163132485871987 10.07461258755363 12.147859462758992 0 0 0
1052 1 23.324774121626536 9.595392755778134 12.53382735335925 0 0 0
1106 1 0.2134674759073614 11.635310017388644 12.362703972924704 1 0 0
1620 1 21.87482775830439 23.29333303730728 10.585166474203072 0 0 0
1210 1 24.18359758670924 10.490516701990813 10.888671313196419 0 0 0
1238 1 22.90603782397171 11.81851924560249 12.293940580094656 0 0 0
1280 1 21.362466313451534 9.241724821789465 12.17406134320851 0 0 0
1352 1 22.076116815442816 10.41847842269167 13.95350480807211 0 0 0
165 1 10.391732720729864 8.998002828256881 10.327764468599602 0 0 0
1500 1 24.161955221033868 10.850559993597393 14.023635222826021 0 0 0
544 1 2.7153770986152574 16.28543019890385 11.059217937524144 0 0 0
596 1 9.374827758304692 23.293333037292292 10.585166474219298 0 0 0
668 1 1.227161683934684 14.503171826609988 11.246472606800424 0 0 0
681 1 1.9908233877156558 12.428760601062828 11.513730371061206 0 0 0
738 1 1.7325239133664163 15.674773736045365 12.853277145449281 0 0 0
847 1 1.2212037317976108 13.37887734557285 13.322321704262622 0 0 0
858 1 3.073426323623611 13.959905946583705 12.209534138111756 0 0 0
1701 1 22.89173272092719 21.498002828303996 10.327764468582957 0 0 0
930 1 0.7170987526120937 16.49396221043783 14.695601423035866 0 0 0
936 1 3.065745408837789 12.225358724183309 13.54375253772059 0 0 0
978 1 2.9407979637452373 16.46165953383107 14.261844070924024 0 0 0
812 1 3.7537871534632155 20.714876264904806 14.905267355522298 0 0 0
541 1 6.201826514027474 12.06476053563246 11.559313938075942 0 0 0
601 1 7.56491919094449 17.01711658758834 11.062111073101018 0 0 0
606 1 6.432592074319007 15.441068143692888 11.766464225774964 0 0 0
709 1 5.0354963829759685 13.948127724342854 11.505486309348203 0 0 0
752 1 8.155462618071697 14.826613752103427 10.659768215268809 0 0 0
775 1 5.712767716755489 14.9306563719417 13.780987123637292 0 0 0
810 1 6.633860799302696 13.02622108738997 14.710742099772279 0 0 0
828 1 4.175065268880922 15.660661929111521 12.477384844136644 0 0 0
929 1 7.0403053999434055 13.608083550365542 12.56880054130119 0 0 0
935 1 7.194764863647372 16.62536436226338 13.48855228424821 0 0 0
975 1 4.941872475848973 13.0391834848547 13.372971608753533 0 0 0
518 1 8.703403085635903 12.885963781606666 11.31645439061617 0 0 0
581 1 11.792275164523641 15.654129409817385 11.197059191231357 0 0 0
582 1 10.254800060331553 14.175791433280011 12.440735244709066 0 0 0
675 1 10.194878306268384 14.217121681969465 10.404875059592998 0 0 0
703 1 9.675861256720934 16.25471134318513 10.865877925203426 0 0 0
756 1 8.525064330423751 15.300241646026391 12.593711593462205 0 0 0
757 1 11.981374880847678 13.424778290830584 11.622358812770035 0 0 0
787 1 7.840433463315999 14.688893716432661 14.413935911141767 0 0 0
824 1 11.602280167863308 13.060866778119422 13.671633771638508 0 0 0
833 1 12.219731030261768 14.963961868128063 13.337261404858108 0 0 0
110 1 6.615777384354323 1.0764270708949537 10.139698553437292 0 0 0
899 1 12.26030053775234 16.991295416713694 12.96271152733533 0 0 0
920 1 8.857083712835857 13.057585351198023 13.48601021125061 0 0 0
944 1 10.436319702122908 16.174709883391728 12.892951948794552 0 0 0
1568 1 15.215377098622918 16.285430198900436 11.059217937517175 0 0 0
439 1 9.094537215277663 4.05281216102927 14.513302094826853 0 0 0
1692 1 13.727161683922944 14.503171826618743 11.246472606794603 0 0 0
1705 1 14.490823387677597 12.428760601055341 11.51373037108806 0 0 0
1762 1 14.232523913363849 15.674773736032401 12.853277145443922 0 0 0
1871 1 13.721203731780038 13.378877345571864 13.322321704265239 0 0 0
1882 1 15.573426323611066 13.959905946582456 12.20953413809903 0 0 0
1618 1 0.21346747597472734 24.135310017365814 12.362703973046687 1 0 0
1954 1 13.217098752617154 16.493962210444526 14.695601423023726 0 0 0
1960 1 15.565745408834141 12.225358724185583 13.543752537708825 0 0 0
2002 1 15.440797963779179 16.461659533803964 14.261844070895457 0 0 0
1463 1 21.594537215279857 4.052812160998184 14.513302094838231 0 0 0
1565 1 18.701826514035016 12.06476053562079 11.559313938083253 0 0 0
1625 1 20.06491919095142 17.017116587573515 11.062111073097883 0 0 0
1630 1 18.93259207432703 15.441068143686637 11.766464225784501 0 0 0
1733 1 17.53549638297942 13.94812772433609 11.505486309350527 0 0 0
1776 1 20.655462618075852 14.826613752093483 10.659768215267418 0 0 0
1799 1 18.212767716759114 14.930656371934212 13.78098712363473 0 0 0
1834 1 19.133860799296723 13.026221087391697 14.710742099779186 0 0 0
1852 1 16.675065268887103 15.660661929103846 12.4773848441227 0 0 0
1953 1 19.540305399950356 13.608083550360497 12.568800541302446 0 0 0
1959 1 19.694764863661774 16.625364362259237 13.488552284274148 0 0 0
1999 1 17.441872475850076 13.039183484854828 13.372971608750863 0 0 0
1542 1 21.20340308564976 12.885963781601378 11.316454390625813 0 0 0
1605 1 24.292275164547597 15.654129409825424 11.197059191244016 0 0 0
1606 1 22.7548000603491 14.175791433286552 12.440735244726419 0 0 0
1699 1 22.694878306282796 14.217121681965814 10.404875059610147 0 0 0
1727 1 22.17586125672032 16.254711343180738 10.865877925199952 0 0 0
1780 1 21.025064330430865 15.300241646027215 12.593711593462166 0 0 0
1781 1 24.48137488085938 13.424778290834986 11.622358812780659 0 0 0
1811 1 20.340433463317016 14.688893716433482 14.413935911145835 0 0 0
1848 1 24.10228016788756 13.060866778123412 13.671633771653127 0 0 0
1857 1 24.719731030265425 14.963961868129699 13.337261404874223 0 0 0
1391 1 22.62125927194778 2.070350330139045 14.629098561559246 0 0 0
1923 1 24.760300537756443 16.991295416713523 12.962711527336563 0 0 0
1944 1 21.35708371284259 13.057585351209116 13.486010211255977 0 0 0
1968 1 22.936319702125772 16.174709883407683 12.892951948790769 0 0 0
537 1 0.8781843863913757 17.1383215682118 11.311469111873832 0 0 0
546 1 2.284662298646062 18.780125266039054 11.354787806359772 0 0 0
558 1 24.725800794253406 20.84818276108799 11.54970464738644 -1 0 0
666 1 3.542069947081272 20.209851328379354 10.23220839554134 0 0 0
704 1 3.9693027051659096 17.864766544014586 10.336992452551971 0 0 0
706 1 4.079763244196025 21.224271359372565 12.469071720092003 0 0 0
779 1 3.6201730449509713 17.68594862790933 12.538690698656922 0 0 0
821 1 0.10667873339719505 18.54984131353926 14.553349455050366 0 0 0
966 1 1.1107371586249597 20.13287437079161 13.336000741497445 0 0 0
1016 1 1.7241221670951867 17.974598149219226 13.369834445994664 0 0 0
648 1 6.902587594420401 19.200329321027098 10.826441710992667 0 0 0
1564 1 23.324774121737473 22.09539275585278 12.533827353370828 0 0 0
694 1 4.860469724715588 19.34794198356643 11.610456354170921 0 0 0
699 1 8.4519046017953 19.612804772471115 12.468559838669046 0 0 0
764 1 5.544986727334243 17.341849749569054 11.744248678448999 0 0 0
781 1 7.30422694023458 20.125185665072703 14.382255171921324 0 0 0
782 1 3.090469629885482 19.638509069501424 13.136377030959697 0 0 0
799 1 5.60152099539954 21.513748976837554 14.175189340410453 0 0 0
808 1 6.432215863753775 18.197342255996418 14.858503717126283 0 0 0
949 1 5.172964775466441 19.478601626782847 13.638676221027298 0 0 0
983 1 5.132048459166305 16.993968660084526 13.833477681390967 0 0 0
1006 1 6.812125827616665 18.515340379664618 12.825935539008196 0 0 0
516 1 10.36640994599732 19.907328585323455 11.961672739044575 0 0 0
520 1 8.57124505059151 20.54403724092824 10.48641194647923 0 0 0
553 1 8.906634363872154 17.57182808177233 12.532614418127999 0 0 0
612 1 11.0414094068044 17.78262098128418 11.238991934653791 0 0 0
711 1 9.098193582836098 18.526432884734177 10.614270545687532 0 0 0
367 1 10.121259271950112 2.070350330162694 14.629098561531588 0 0 0
765 1 12.996316775421473 19.173946653485192 10.437425119596526 0 0 0
822 1 8.632209108095534 18.562952905406068 14.496370520458209 0 0 0
913 1 12.374180707293617 18.899924131798166 12.352409902537644 0 0 0
934 1 9.423701019405392 20.65626769272543 13.971948579763605 0 0 0
2047 1 18.163132486085193 22.57461258754451 12.14785946281302 0 0 0
952 1 11.621456042072738 20.518488423483365 13.700397997822087 0 0 0
971 1 10.55658663435402 18.383517188999036 13.500226543375918 0 0 0
1561 1 13.378184386386277 17.138321568177133 11.311469111868723 0 0 0
1570 1 14.784662298636734 18.780125266001953 11.354787806344344 0 0 0
1582 1 12.225800794260376 20.84818276107266 11.549704647385513 0 0 0
1690 1 16.042069947071134 20.20985132836006 10.232208395549968 0 0 0
1728 1 16.469302705173487 17.864766544007946 10.336992452535744 0 0 0
1730 1 16.579763244209975 21.22427135937553 12.469071720084369 0 0 0
1803 1 16.120173044971853 17.685948627910708 12.538690698644594 0 0 0
1845 1 12.606678733416565 18.549841313529445 14.553349455054057 0 0 0
1990 1 13.610737158618074 20.1328743707955 13.336000741544582 0 0 0
2040 1 14.224122167110412 17.974598149203803 13.369834445990058 0 0 0
1672 1 19.402587594425494 19.20032932102001 10.826441711002081 0 0 0
1836 1 16.253787153450816 20.714876264862404 14.905267355522838 0 0 0
1718 1 17.360469724727253 19.34794198355766 11.610456354164631 0 0 0
1723 1 20.951904601783227 19.61280477248062 12.468559838670126 0 0 0
1788 1 18.04498672734843 17.34184974956496 11.74424867844372 0 0 0
1805 1 19.804226940231192 20.12518566506774 14.382255171924848 0 0 0
1806 1 15.59046962987867 19.63850906951409 13.136377030929133 0 0 0
1823 1 18.10152099539581 21.513748976822775 14.175189340410295 0 0 0
1832 1 18.932215863738392 18.197342255993483 14.858503717148006 0 0 0
1973 1 17.672964775470227 19.478601626785238 13.638676221020521 0 0 0
2007 1 17.63204845918118 16.993968660068475 13.833477681384025 0 0 0
2030 1 19.31212582761936 18.51534037965375 12.825935539023236 0 0 0
1540 1 22.866409945992487 19.907328585322283 11.961672739048616 0 0 0
1544 1 21.07124505061369 20.544037240897985 10.486411946465587 0 0 0
1577 1 21.40663436386743 17.571828081780605 12.532614418131478 0 0 0
1636 1 23.54140940680622 17.782620981274 11.238991934640001 0 0 0
1735 1 21.598193582838277 18.526432884715074 10.614270545691335 0 0 0
1903 1 22.62125927177001 14.57035033014021 14.629098561521829 0 0 0
1789 1 0.49631677543348174 19.173946653523 10.437425119604315 1 0 0
1846 1 21.132209108090954 18.562952905412864 14.49637052046189 0 0 0
1937 1 24.874180707261548 18.89992413180346 12.352409902531818 0 0 0
1958 1 21.923701019400742 20.656267692734072 13.971948579759465 0 0 0
1324 1 16.25378715343242 8.214876264928174 14.905267355423668 0 0 0
1976 1 24.12145604207933 20.51848842349741 13.7003979978182 0 0 0
1995 1 23.056586634346324 18.383517189003943 13.500226543397428 0 0 0
608 1 2.5134066140154467 23.004860420500027 12.393763358667684 0 0 0
620 1 0.34781684013791747 24.59741423755627 10.282210727038064 0 0 0
1975 1 21.59453721507621 16.552812160969726 14.5133020949965 0 0 0
676 1 1.9627707881496337 20.89832682959444 11.48137061614582 0 0 0
717 1 1.2743910630059858 22.735423543084767 10.831004296003831 0 0 0
730 1 3.6444156379012864 22.362437422625874 10.750977217102259 0 0 0
759 1 4.124421050582268 24.24392570557709 11.788026087126779 0 0 0
818 1 0.5249925606655885 22.14472802921179 12.834039794292554 0 0 0
907 1 1.2877095854027483 23.72153843430628 14.149922899235268 0 0 0
916 1 2.3042631808770846 21.67376516753424 13.944253313086502 0 0 0
977 1 4.2091234812456175 22.955110331022183 13.747482294258882 0 0 0
517 1 7.386559867702328 22.269387360918223 10.806175666765114 0 0 0
559 1 8.02417264652981 23.749337521021424 12.411850345612443 0 0 0
603 1 5.377467609986905 23.30662156215539 10.136248683668333 0 0 0
638 1 5.608153588156528 21.140847726777313 10.630870728638438 0 0 0
729 1 6.666026205284452 20.70678839235651 12.358311508211285 0 0 0
795 1 6.175417512551848 23.866357510334932 13.596093703316427 0 0 0
839 1 7.506841091769077 22.15928287206876 13.747207418517567 0 0 0
300 1 3.7537871534226093 8.214876264928206 14.905267355420584 0 0 0
1863 1 20.006841091757764 22.15928287206199 13.74720741850326 0 0 0
1819 1 18.675417512544062 23.866357510338375 13.596093703305046 0 0 0
1023 1 5.663132486056593 22.574612587544024 12.147859462831097 0 0 0
540 1 10.824774121742141 22.0953927558521 12.533827353372404 0 0 0
594 1 12.713467475976119 24.13531001736462 12.36270397304409 0 0 0
951 1 9.094537215064669 16.552812160964965 14.51330209499072 0 0 0
698 1 11.683597586858012 22.99051670203047 10.888671313233571 0 0 0
726 1 10.406037824135955 24.31851924566658 12.293940580138791 0 0 0
768 1 8.862466313590902 21.74172482179237 12.174061343193507 0 0 0
840 1 9.576116815477606 22.918478422803116 13.95350480794738 0 0 0
879 1 10.121259271757332 14.570350330139556 14.629098561511887 0 0 0
988 1 11.661955221180209 23.350559993502205 14.023635222991478 0 0 0
1632 1 15.013406614001253 23.004860420480522 12.393763358666208 0 0 0
1644 1 12.847816840144962 24.597414237543013 10.282210727030495 0 0 0
1753 1 19.16602620527725 20.70678839235083 12.358311508203851 0 0 0
1700 1 14.462770788135492 20.89832682956281 11.481370616157282 0 0 0
1741 1 13.774391062997244 22.735423543057145 10.831004296002188 0 0 0
1754 1 16.14441563788149 22.362437422608483 10.750977217097653 0 0 0
1783 1 16.624421050573698 24.243925705541862 11.788026087141422 0 0 0
1842 1 13.024992560655722 22.14472802920092 12.834039794296537 0 0 0
1931 1 13.787709585406818 23.721538434296754 14.149922899232525 0 0 0
1940 1 14.804263180881017 21.673765167528437 13.944253313092837 0 0 0
2001 1 16.7091234812401 22.95511033099479 13.74748229426001 0 0 0
1541 1 19.88655986771262 22.26938736087502 10.806175666710855 0 0 0
1583 1 20.524172646487703 23.749337521001284 12.411850345568107 0 0 0
1627 1 17.87746760996089 23.306621562156128 10.136248683658284 0 0 0
1662 1 18.108153588135337 21.140847726777892 10.630870728641145 0 0 0
330 1 3.466334713143205 1.932699976244884 14.1854093066172 0 0 0
1354 1 15.966334713106743 1.9326999762326726 14.185409306617087 0 0 0
842 1 3.466334712994974 14.432699976365662 14.185409306636744 0 0 0
1866 1 15.966334712994792 14.432699976344407 14.185409306623528 0 0 0
319 1 1.5563893210898554 2.1778124022346126 14.918656930450231 0 0 0
1343 1 14.056389321067245 2.1778124022110923 14.91865693044981 0 0 0
831 1 1.5563893209470472 14.677812402270876 14.918656930399477 0 0 0
1855 1 14.056389320940799 14.677812402278956 14.918656930386122 0 0 0
1398 1 0.3910838934254583 9.282925699316795 14.981973937177692 1 0 0
374 1 12.891083893435512 9.282925699267327 14.9819739371617 0 0 0
1910 1 0.39108389347607775 21.782925698918227 14.981973937259882 1 0 0
886 1 12.891083893469746 21.782925698948148 14.981973937265389 0 0 0
1921 1 23.686155748624888 16.695511747702316 14.862238630913732 0 0 0
897 1 11.18615574862891 16.69551174771252 14.862238630912776 0 0 0
1409 1 23.686155748797958 4.1955117476570205 14.862238630964294 0 0 0
385 1 11.186155748792693 4.195511747641969 14.862238630975577 0 0 0
853 1 8.080959387898927 24.05884077845487 14.710789155817837 0 0 0
1877 1 20.580959387878856 24.05884077843317 14.710789155845097 0 0 0
1365 1 20.580959387818925 11.558840778429422 14.710789155783479 0 0 0
341 1 8.08095938781919 11.558840778426408 14.710789155780947 0 0 0
906 1 10.209047435640889 24.74497278580132 14.806621253753287 0 0 0
394 1 10.209047435480787 12.244972785837456 14.806621253711276 0 0 0
1930 1 22.709047435634623 24.74497278579869 14.806621253743181 0 0 0
1418 1 22.709047435477835 12.244972785834848 14.806621253699781 0 0 0
289 1 3.352425192203361 3.8908874315298583 17.48173386880927 0 0 0
291 1 3.073515666060905 1.1181397160026658 18.53277823442268 0 0 0
292 1 0.9896913055717798 3.316284686149325 16.623960758632595 0 0 0
311 1 24.521348962273695 2.113987703520377 15.505518751271511 -1 0 0
1470 1 17.225841191410137 11.915355913637628 15.297980630494882 0 0 0
990 1 6.424959391185357 23.148028814040515 15.549059689129054 0 0 0
344 1 3.9576530927860114 2.7160473253092703 19.384264333172293 0 0 0
1951 1 14.848115611433688 12.770919083214407 15.304529037067162 0 0 0
393 1 1.336459875158778 1.1371921258739066 16.947841113035015 0 0 0
429 1 3.1261433315284175 2.054729334711593 16.50683422784895 0 0 0
441 1 1.7368364410589825 2.8098248800539816 18.46410771138905 0 0 0
458 1 24.801494021318803 3.8250786548871405 18.33390272273429 -1 0 0
489 1 0.7785876913031567 0.94083563580198 19.12903305012465 0 0 0
265 1 6.093735444682048 2.8305603213981407 19.459636231014542 0 0 0
266 1 7.020362273861874 3.495592837159439 17.64766128485177 0 0 0
317 1 7.295685430264674 1.449308273396078 18.2986221911096 0 0 0
370 1 4.355449745493948 3.6768024241326414 15.664423036780406 0 0 0
380 1 6.464539966500023 3.559799825580692 15.437362664379355 0 0 0
396 1 6.8298415125381 1.8018167064388169 16.35829603116154 0 0 0
405 1 4.910228271876693 1.5096463954698414 15.553602288184743 0 0 0
477 1 5.0952812812694495 2.6749161235568684 17.4705463474121 0 0 0
487 1 5.238844143185664 0.964667406455606 19.37221121219932 0 0 0
259 1 12.008633660791398 1.9540580847556792 17.72114717984517 0 0 0
268 1 10.751963819929511 3.3255860610450894 16.737315984467035 0 0 0
278 1 9.044541819526192 4.1079724656702545 17.915178326658847 0 0 0
339 1 10.392835041664933 2.992455438166139 19.289603856043968 0 0 0
361 1 8.96556937958808 0.9503830610815087 19.651995863945317 0 0 0
363 1 10.72921855070125 0.6047171816976827 16.633582338830582 0 0 0
2003 1 23.806174955139554 21.881635901678273 19.03917446066753 0 0 0
375 1 8.663780947556091 2.922039960706091 16.205743479584427 0 0 0
426 1 8.23418726469281 3.046743835081244 19.47075683895972 0 0 0
452 1 8.723416023544724 0.8121079296603848 15.91791935062368 0 0 0
1998 1 24.46974596546073 21.746361105675362 16.964924617483934 0 0 0
495 1 11.035855205671123 0.6160368210522722 18.90267777494889 0 0 0
510 1 9.429148426339873 1.8660879827418155 17.80687086919562 0 0 0
1313 1 15.85242519219379 3.890887431527627 17.481733868734207 0 0 0
1315 1 15.573515666047852 1.1181397159750377 18.53277823443122 0 0 0
1316 1 13.489691305569739 3.3162846861417954 16.623960758628925 0 0 0
1335 1 12.021348962260847 2.1139877034981933 15.505518751286413 0 0 0
1502 1 18.924959391133967 10.648028814014987 15.54905968907791 0 0 0
958 1 4.725841191492007 24.41535591380041 15.297980630526464 0 0 0
1368 1 16.457653092781158 2.716047325307741 19.384264333135025 0 0 0
927 1 2.348115611448148 12.770919083211192 15.304529037081661 0 0 0
1417 1 13.83645987511103 1.1371921258573916 16.947841113029984 0 0 0
1453 1 15.626143331506277 2.0547293346746898 16.506834227870325 0 0 0
1465 1 14.236836441068343 2.8098248800407872 18.464107711377007 0 0 0
1482 1 12.301494021322611 3.8250786548940794 18.333902722735363 0 0 0
1513 1 13.278587691290472 0.940835635785329 19.129033050123837 0 0 0
1289 1 18.59373544469337 2.830560321386995 19.459636230982913 0 0 0
1290 1 19.520362273853912 3.4955928371606118 17.647661284832594 0 0 0
1341 1 19.795685430296132 1.449308273394247 18.29862219104363 0 0 0
1394 1 16.855449745531864 3.6768024240260004 15.664423036724292 0 0 0
1404 1 18.964539966538744 3.5597998256019263 15.437362664354552 0 0 0
1420 1 19.32984151247604 1.8018167064435466 16.358296031119202 0 0 0
1429 1 17.41022827181901 1.5096463953812755 15.55360228818157 0 0 0
1501 1 17.595281281255822 2.674916123549715 17.47054634739179 0 0 0
1511 1 17.73884414318788 0.9646674064558811 19.37221121218197 0 0 0
1283 1 24.50863366081233 1.9540580847575815 17.721147179818217 0 0 0
1292 1 23.251963819930605 3.325586061050851 16.73731598445372 0 0 0
1302 1 21.54454181953655 4.107972465672374 17.91517832665562 0 0 0
1363 1 22.892835041674303 2.9924554381721 19.289603856040312 0 0 0
1385 1 21.465569379586274 0.9503830610636786 19.65199586392035 0 0 0
1387 1 23.229218550718976 0.6047171816973107 16.633582338810864 0 0 0
1972 1 21.82274017736738 23.680571885848316 16.42938678990371 0 0 0
1399 1 21.1637809475347 2.9220399606741454 16.205743479606806 0 0 0
1450 1 20.734187264703877 3.0467438350619434 19.470756838936907 0 0 0
1476 1 21.22341602352986 0.8121079296408567 15.917919350640176 0 0 0
1970 1 0.005078999578664423 23.6589478154223 19.435904270602087 1 0 0
1519 1 23.535855205689607 0.6160368210717697 18.9026777749483 0 0 0
1534 1 21.92914842638814 1.8660879827397625 17.806870869197542 0 0 0
277 1 0.1905417306807426 7.44161329544185 16.172840872504242 0 0 0
305 1 0.21696898000379716 7.864495535617109 18.440484094780093 0 0 0
336 1 3.7229338521772695 5.887037983577812 16.889189194380766 0 0 0
354 1 24.783170959052658 5.261229175646463 16.531209339938176 -1 0 0
358 1 2.3077872111442335 8.315324126965892 18.723011489079983 0 0 0
360 1 2.0257099662538596 5.068946814220835 15.869106150394687 0 0 0
400 1 3.820836316353734 8.044828740473314 17.2211979525352 0 0 0
409 1 1.6740506533657513 4.933733177716264 17.97807087547451 0 0 0
449 1 2.049898235593979 7.072382151122288 15.151945093294113 0 0 0
475 1 1.8385555528226973 6.831850853359157 17.324682800640858 0 0 0
491 1 3.7804221725326257 6.533845427891657 18.828220350241246 0 0 0
502 1 3.0310465492898677 4.544392246075879 19.51339974392512 0 0 0
505 1 1.8118975489830311 6.468109011545316 19.687282642160252 0 0 0
258 1 5.063949767197753 4.657677257197696 18.613892979478777 0 0 0
294 1 7.919440615778132 4.858554609619492 16.197743714420596 0 0 0
357 1 7.595750534234101 7.030348083458224 19.522803956687405 0 0 0
359 1 7.2398966358079555 6.721864844059026 16.507598750841943 0 0 0
371 1 7.198132877884163 5.429556947158377 18.291437700010356 0 0 0
372 1 5.253469573135762 7.189102806316324 15.866435730716107 0 0 0
381 1 5.703594981075327 6.932968672999556 17.98252263415763 0 0 0
478 1 6.424959391136901 10.648028814015454 15.549059689073927 0 0 0
1952 1 17.76541686605019 0.6102670893282813 17.387686513194964 0 1 0
1963 1 23.196003016042532 21.624205640849695 15.305816254586091 0 0 0
493 1 5.649309090752807 5.062112625181815 16.699197153565827 0 0 0
293 1 12.535550923731428 5.918968291242275 18.63384390560484 0 0 0
314 1 10.75689252434755 6.719880252803503 19.55550195656699 0 0 0
315 1 10.86423931686259 6.896744515788038 15.297402674125564 0 0 0
362 1 9.081994141379528 7.548839838908843 16.063694928575465 0 0 0
368 1 9.002672423347388 6.442159715229132 17.89451409016223 0 0 0
403 1 10.914297301675186 7.295852385514501 17.432854163813044 0 0 0
431 1 9.060545649084236 5.25281831329633 19.76874432144072 0 0 0
460 1 10.70671410290991 5.160260980743448 18.08412115570861 0 0 0
1439 1 14.848115611585214 0.27091908312807644 15.30452903710317 0 0 0
481 1 9.947108925606669 5.333809128216152 16.16317687118325 0 0 0
483 1 9.462466478872928 8.236001796879394 19.18625505234742 0 0 0
1301 1 12.69054173069935 7.4416132953834015 16.172840872533776 0 0 0
1329 1 12.716968980014608 7.864495535641558 18.440484094793373 0 0 0
1360 1 16.222933852167642 5.887037983582966 16.889189194415348 0 0 0
1378 1 12.283170959017934 5.261229175618204 16.53120933993472 0 0 0
1382 1 14.8077872111381 8.3153241269982 18.72301148908231 0 0 0
1384 1 14.525709966202298 5.068946814264575 15.869106150392009 0 0 0
1424 1 16.320836316364637 8.044828740486865 17.22119795252538 0 0 0
1433 1 14.174050653350363 4.93373317770677 17.97807087545824 0 0 0
1473 1 14.549898235596581 7.072382151146484 15.151945093296943 0 0 0
1499 1 14.338555552856123 6.831850853373087 17.32468280066975 0 0 0
1515 1 16.280422172582398 6.533845427966882 18.828220350261084 0 0 0
1526 1 15.531046549320749 4.544392246104963 19.5133997438622 0 0 0
1529 1 14.311897548998216 6.468109011546714 19.68728264214911 0 0 0
1282 1 17.563949767199485 4.657677257206274 18.613892979446714 0 0 0
1318 1 20.41944061580437 4.858554609613786 16.197743714431763 0 0 0
1381 1 20.095750534234856 7.030348083441799 19.522803956698606 0 0 0
1383 1 19.739896635814837 6.721864844042085 16.507598750812488 0 0 0
1395 1 19.698132877881754 5.429556947156858 18.2914376999947 0 0 0
1396 1 17.75346957313409 7.189102806292539 15.866435730705659 0 0 0
1405 1 18.203594981102093 6.932968673001902 17.98252263413112 0 0 0
446 1 4.72584119141333 11.915355913613999 15.297980630497515 0 0 0
1947 1 19.17640196388686 21.188117450816176 16.042771342896426 0 0 0
1949 1 23.93269978622085 23.493239000600898 16.04062791249944 0 0 0
1517 1 18.149309090729957 5.062112625163184 16.699197153521727 0 0 0
1317 1 0.03555092373329833 5.9189682912421935 18.633843905624524 1 0 0
1338 1 23.25689252434189 6.719880252798758 19.555501956562512 0 0 0
1339 1 23.36423931686706 6.8967445157921485 15.297402674117805 0 0 0
1386 1 21.58199414138316 7.548839838901955 16.0636949285819 0 0 0
1392 1 21.502672423351047 6.442159715217501 17.894514090163725 0 0 0
1427 1 23.414297301677554 7.295852385512447 17.432854163808127 0 0 0
1455 1 21.560545649091768 5.252818313280763 19.768744321440987 0 0 0
1484 1 23.206714102924032 5.1602609807382755 18.084121155701627 0 0 0
415 1 2.3481156116170263 0.27091908314686836 15.304529037094257 0 0 0
1505 1 22.4471089256317 5.333809128221941 16.163176871186206 0 0 0
1507 1 21.962466478855838 8.23600179686833 19.18625505235472 0 0 0
308 1 0.9430865201805132 9.873792956656844 18.148736051578297 0 0 0
333 1 3.1135114636554477 10.201395466779772 17.49612857680395 0 0 0
334 1 2.3233171904950436 10.238076769898981 19.7141418545192 0 0 0
397 1 3.4229171859341148 12.262535527871814 16.901551327062975 0 0 0
430 1 4.1112485648739865 9.396074225974393 19.112187181314038 0 0 0
435 1 1.8786503593473372 11.806166421846996 18.178574742411733 0 0 0
468 1 4.015479345883523 11.7359640909151 18.965051092302044 0 0 0
484 1 1.9510188516138556 8.845595131000206 16.36108456217072 0 0 0
497 1 2.95332933424126 10.64040217406831 15.367599201926893 0 0 0
507 1 1.1440265304855353 10.938978151182774 16.30411863456856 0 0 0
295 1 6.730012108655553 12.06274403434212 18.77476380751164 0 0 0
451 1 5.771253877273549 10.458386534236999 19.517352018056872 0 0 0
301 1 7.874184159416828 8.283785918557822 17.73827881145701 0 0 0
331 1 5.278847770249275 11.031176346355654 17.41154347560308 0 0 0
332 1 7.526659935093314 10.350948545348118 17.587528874248953 0 0 0
343 1 7.541682648996039 9.234737138878018 19.585670207720412 0 0 0
373 1 7.134953078678319 12.223544502931487 16.681077595745272 0 0 0
411 1 6.676401963798451 8.68811745082796 16.042771342818543 0 0 0
416 1 5.265416865831434 13.110267089313075 17.387686513274787 0 0 0
445 1 5.784675930996571 9.031307509430041 17.84574501993838 0 0 0
486 1 4.653968983112629 9.621602746940527 16.043385548141817 0 0 0
273 1 8.47591397926778 9.505722208607208 15.622947594184241 0 0 0
276 1 9.842364563482848 9.261435840243323 17.29634231620991 0 0 0
307 1 8.85045130832678 12.233326303261144 18.102773624288073 0 0 0
313 1 10.781252723522892 11.17143722281686 18.056881425809433 0 0 0
322 1 12.453456864289286 12.18966383842315 17.51582713569806 0 0 0
323 1 9.199776008623227 10.298018438389782 19.023775494956517 0 0 0
378 1 12.659981340772205 12.625083167738799 15.363246690143704 0 0 0
1909 1 19.634953078884863 24.723544502931315 16.6810775957472 0 0 0
413 1 11.43269978598354 10.993239000602868 16.04062791234369 0 0 0
427 1 10.696003016117228 9.124205640573331 15.305816254672404 0 0 0
434 1 12.505078999399059 11.158947815337784 19.435904270493605 0 0 0
436 1 9.32274017718106 11.180571885838013 16.42938678990134 0 0 0
462 1 11.969745965478305 9.246361105906114 16.96492461748037 0 0 0
467 1 11.306174955117969 9.381635901475208 19.039174460595362 0 0 0
1332 1 13.443086520162508 9.873792956678663 18.148736051574044 0 0 0
1357 1 15.613511463662132 10.201395466799056 17.49612857680037 0 0 0
1358 1 14.82331719048929 10.238076769921259 19.714141854510938 0 0 0
1421 1 15.922917185937306 12.26253552789841 16.901551327050797 0 0 0
1454 1 16.611248564869523 9.396074225981096 19.112187181318667 0 0 0
1459 1 14.37865035935523 11.806166421859142 18.178574742387596 0 0 0
1492 1 16.515479345875143 11.735964090927677 18.96505109229824 0 0 0
1508 1 14.451018851610602 8.845595131009008 16.36108456218817 0 0 0
1521 1 15.453329334239198 10.64040217407629 15.367599201924785 0 0 0
1531 1 13.644026530468825 10.938978151174226 16.304118634546825 0 0 0
1319 1 19.23001210867572 12.062744034332171 18.77476380751869 0 0 0
1475 1 18.27125387726769 10.458386534238661 19.51735201806613 0 0 0
1325 1 20.374184159384424 8.283785918527387 17.73827881146091 0 0 0
1355 1 17.77884777025165 11.031176346368493 17.411543475605548 0 0 0
1356 1 20.02665993509963 10.35094854533248 17.587528874247237 0 0 0
1367 1 20.04168264897714 9.234737138867752 19.5856702077157 0 0 0
1397 1 19.634953078692366 12.223544502921472 16.68107759575321 0 0 0
1435 1 19.176401963784297 8.688117450818588 16.042771342814422 0 0 0
1440 1 17.765416865847516 13.110267089313236 17.387686513272158 0 0 0
1469 1 18.28467593098491 9.031307509443113 17.845745019936373 0 0 0
1510 1 17.153968983113252 9.62160274695571 16.043385548132747 0 0 0
1297 1 20.975913979259733 9.50572220859463 15.622947594187844 0 0 0
1300 1 22.342364563453945 9.261435840226024 17.29634231622229 0 0 0
1331 1 21.350451308344056 12.233326303250951 18.10277362428302 0 0 0
1337 1 23.28125272352673 11.171437222786281 18.056881425798956 0 0 0
1346 1 24.953456864289816 12.189663838421124 17.515827135711838 0 0 0
1347 1 21.699776008619395 10.2980184383846 19.023775494966642 0 0 0
1402 1 0.15998134078889378 12.625083167753052 15.363246690153847 1 0 0
1879 1 20.04168264914384 21.734737138863714 19.58567020775788 0 0 0
1437 1 23.932699786000793 10.993239000620376 16.0406279123199 0 0 0
1451 1 23.196003016115508 9.124205640585155 15.30581625469004 0 0 0
1458 1 0.00507899939939449 11.1589478153143 19.435904270485576 1 0 0
1460 1 21.822740177191854 11.180571885821392 16.429386789889282 0 0 0
1486 1 24.469745965448485 9.246361105944283 16.964924617507123 0 0 0
1491 1 23.806174955102172 9.381635901456892 19.039174460618245 0 0 0
801 1 3.3524251921045853 16.39088743162926 17.481733868579028 0 0 0
803 1 3.0735156658950493 13.618139715922885 18.532778234447672 0 0 0
804 1 0.9896913055405997 15.816284686192436 16.623960758565854 0 0 0
823 1 24.521348962138127 14.613987703594594 15.505518751177254 -1 0 0
2008 1 18.172738467755043 20.65394761591046 19.797070917812647 0 0 0
1982 1 17.225841191478757 24.415355913752304 15.297980630514411 0 0 0
856 1 3.9576530926574267 15.216047325310779 19.38426433305296 0 0 0
1868 1 20.026659935208396 22.85094854534167 17.587528874244963 0 0 0
905 1 1.3364598749071832 13.637192125872097 16.947841112968252 0 0 0
941 1 3.1261433313625906 14.554729334655654 16.50683422795592 0 0 0
953 1 1.736836441002185 15.309824880030536 18.464107711289913 0 0 0
970 1 24.801494021235158 16.32507865489087 18.33390272271157 -1 0 0
1001 1 0.7785876911824667 13.440835635805504 19.129033050071026 0 0 0
777 1 6.09373544460589 15.33056032135156 19.459636231022934 0 0 0
778 1 7.0203622737068105 15.995592837114097 17.647661284833607 0 0 0
829 1 7.295685430214229 13.949308273386452 18.298622190937905 0 0 0
882 1 4.355449745542721 16.17680242379237 15.664423036638555 0 0 0
892 1 6.464539966558647 16.059799825652377 15.437362664328441 0 0 0
908 1 6.829841512141148 14.30181670640307 16.358296031037135 0 0 0
917 1 4.910228271553017 14.009646395118159 15.553602288176243 0 0 0
989 1 5.095281281106917 15.174916123528792 17.47054634739445 0 0 0
999 1 5.238844143025524 13.464667406496206 19.372211212223796 0 0 0
771 1 12.008633660638065 14.454058084790253 17.7211471797175 0 0 0
780 1 10.751963819717899 15.82558606104439 16.737315984330685 0 0 0
790 1 9.044541819432814 16.60797246559054 17.915178326619127 0 0 0
851 1 10.392835041575506 15.49245543821208 19.28960385606685 0 0 0
873 1 8.965569379429285 13.450383061089056 19.65199586387705 0 0 0
875 1 10.729218550571872 13.10471718172453 16.633582338721933 0 0 0
1867 1 17.778847770364475 23.531176346385156 17.411543475624526 0 0 0
887 1 8.663780947251176 15.422039960507526 16.20574347969225 0 0 0
938 1 8.234187264571421 15.54674383503796 19.470756838898172 0 0 0
964 1 8.72341602331178 13.312107929586686 15.91791935067197 0 0 0
1914 1 0.15998134101075592 0.12508316771513459 15.363246690296034 1 1 0
1007 1 11.035855205590583 13.116036821026576 18.902677774855125 0 0 0
1022 1 9.429148426377413 14.366087982701245 17.806870869214507 0 0 0
1825 1 15.852425192129234 16.390887431645062 17.48173386864624 0 0 0
1827 1 15.573515665905818 13.618139715943766 18.532778234420718 0 0 0
1828 1 13.489691305482983 15.816284686187812 16.623960758567087 0 0 0
1847 1 12.021348962124229 14.613987703580701 15.505518751150392 0 0 0
984 1 5.672738467712968 20.65394761589398 19.797070917810398 0 0 0
2014 1 18.924959391154996 23.148028814017934 15.549059689117644 0 0 0
1880 1 16.457653092670068 15.216047325294554 19.38426433308291 0 0 0
1812 1 22.342364563525845 21.761435840311748 17.296342316215494 0 0 0
1929 1 13.836459874917104 13.637192125872598 16.947841112949593 0 0 0
1965 1 15.626143331332374 14.554729334712388 16.506834227922745 0 0 0
1977 1 14.236836440993272 15.3098248800306 18.464107711273613 0 0 0
1994 1 12.301494021226638 16.325078654865266 18.333902722721067 0 0 0
2025 1 13.278587691184924 13.440835635813022 19.129033050053525 0 0 0
1801 1 18.593735444606256 15.330560321337996 19.45963623103537 0 0 0
1802 1 19.520362273702478 15.995592837108022 17.647661284840453 0 0 0
1853 1 19.795685430213016 13.949308273377918 18.298622190948006 0 0 0
1906 1 16.855449745517372 16.176802423871084 15.664423036672023 0 0 0
1916 1 18.96453996653224 16.05979982564347 15.437362664350317 0 0 0
1932 1 19.329841512153735 14.301816706389813 16.35829603104275 0 0 0
1941 1 17.410228271551695 14.00964639516262 15.553602288187967 0 0 0
2013 1 17.59528128110216 15.174916123518061 17.470546347407357 0 0 0
2023 1 17.738844143030548 13.464667406478734 19.372211212230265 0 0 0
1795 1 24.50863366063299 14.454058084795482 17.72114717973584 0 0 0
1804 1 23.251963819706614 15.82558606104781 16.73731598433177 0 0 0
1814 1 21.544541819418832 16.607972465586272 17.915178326611308 0 0 0
1875 1 22.892835041572738 15.492455438219537 19.289603856060573 0 0 0
1897 1 21.46556937943004 13.450383061079169 19.651995863871793 0 0 0
1899 1 23.22921855058099 13.10471718172452 16.63358233871272 0 0 0
1859 1 21.699776008692094 22.79801843844917 19.023775494961217 0 0 0
1911 1 21.16378094724145 15.422039960504303 16.205743479692934 0 0 0
1962 1 20.734187264564078 15.54674383503926 19.47075683889075 0 0 0
1988 1 21.223416023320333 13.312107929582096 15.917919350669383 0 0 0
1858 1 24.95345686446692 24.6896638384533 17.515827135786733 0 0 0
2031 1 23.53585520558714 13.116036820996746 18.902677774838974 0 0 0
2046 1 21.929148426378276 14.366087982693816 17.806870869214407 0 0 0
789 1 0.19054173078350492 19.941613295014225 16.172840873019066 0 0 0
817 1 0.21696897995413283 20.36449553571307 18.44048409510199 0 0 0
848 1 3.7229338521479187 18.38703798362671 16.889189194412857 0 0 0
866 1 24.783170958780243 17.761229175430728 16.531209339895348 -1 0 0
870 1 2.307787211141172 20.81532412709975 18.723011489285625 0 0 0
872 1 2.0257099658769913 17.568946814597076 15.869106150406433 0 0 0
912 1 3.8208363164467825 20.544828740533497 17.221197952712114 0 0 0
921 1 1.6740506532529664 17.43373317771634 17.978070875451312 0 0 0
961 1 2.0498982354229582 19.572382151376708 15.151945093215373 0 0 0
987 1 1.838555553061268 19.331850853480784 17.324682800888226 0 0 0
1003 1 3.78042217254911 19.033845427896992 18.828220350297663 0 0 0
1014 1 3.031046549267584 17.044392246063317 19.513399743838058 0 0 0
1017 1 1.8118975489943163 18.96810901149944 19.687282642135425 0 0 0
770 1 5.063949767126215 17.157677257174864 18.613892979457127 0 0 0
806 1 7.919440615788623 17.358554609613577 16.197743714535026 0 0 0
869 1 7.5957505342696985 19.530348083406082 19.522803956727596 0 0 0
871 1 7.239896635780862 19.221864844002567 16.507598750924895 0 0 0
883 1 7.198132877805952 17.929556947052973 18.29143770009545 0 0 0
884 1 5.253469573159913 19.689102806293963 15.86643573078503 0 0 0
893 1 5.703594981078709 19.432968672953063 17.98252263421226 0 0 0
1496 1 18.172738467537812 8.153947615884038 19.79707091774078 0 0 0
1837 1 20.374184159481093 20.783785918550485 17.7382788115283 0 0 0
1849 1 23.281252723644947 23.671437222904956 18.05688142587347 0 0 0
1005 1 5.649309090624034 17.562112625090165 16.69919715350314 0 0 0
805 1 12.535550923630893 18.418968291256245 18.633843905496292 0 0 0
826 1 10.756892524248203 19.219880252631906 19.555501956705974 0 0 0
827 1 10.864239316881621 19.396744516072335 15.297402674228975 0 0 0
874 1 9.081994141319077 20.048839839005527 16.063694928645507 0 0 0
880 1 9.002672423262846 18.942159715123054 17.894514090222856 0 0 0
915 1 10.914297301574724 19.795852385497213 17.43285416398089 0 0 0
943 1 9.060545648993463 17.752818313057148 19.768744321503274 0 0 0
972 1 10.70671410278269 17.660260980634177 18.084121155776128 0 0 0
1809 1 20.97591397928095 22.005722208711887 15.622947594160367 0 0 0
993 1 9.947108925614891 17.83380912837204 16.16317687118466 0 0 0
995 1 9.462466478992644 20.73600179687264 19.186255052290047 0 0 0
1813 1 12.690541730748876 19.941613295075452 16.172840872983684 0 0 0
1841 1 12.716968979931394 20.364495535654896 18.440484095106278 0 0 0
1872 1 16.222933852145648 18.387037983628783 16.889189194358792 0 0 0
1890 1 12.283170958812914 17.761229175459704 16.53120933989621 0 0 0
1894 1 14.807787211152966 20.815324127045802 18.723011489298877 0 0 0
1896 1 14.52570996593755 17.56894681450854 15.869106150410955 0 0 0
1936 1 16.32083631643644 20.544828740507842 17.22119795273235 0 0 0
1945 1 14.174050653269784 17.4337331777017 17.97807087546028 0 0 0
1985 1 14.549898235422015 19.572382151317374 15.151945093231072 0 0 0
2011 1 14.338555553009254 19.33185085345471 17.32468280086594 0 0 0
2027 1 16.28042217250115 19.03384542779529 18.828220350264 0 0 0
2038 1 15.531046549234864 17.0443922460134 19.513399743897043 0 0 0
2041 1 14.311897548986485 18.96810901147147 19.68728264214446 0 0 0
1794 1 17.563949767130413 17.157677257154695 18.61389297949179 0 0 0
1830 1 20.419440615785508 17.35855460961129 16.19774371452932 0 0 0
1893 1 20.09575053427697 19.53034808341552 19.522803956717592 0 0 0
1895 1 19.73989663578037 19.22186484400016 16.507598750952035 0 0 0
1907 1 19.69813287781322 17.929556947044446 18.291437700111764 0 0 0
1908 1 17.753469573160906 19.6891028062908 15.866435730789789 0 0 0
1917 1 18.203594981058032 19.432968672947318 17.982522634231607 0 0 0
472 1 5.6727384675628105 8.153947615902503 19.79707091775281 0 0 0
1987 1 18.271253877408977 22.958386534251527 19.5173520180567 0 0 0
1843 1 21.350451308459732 24.73332630330266 18.10277362427372 0 0 0
2029 1 18.1493090906405 17.56211262509885 16.699197153546162 0 0 0
1829 1 0.03555092361843056 18.418968291249065 18.63384390547603 1 0 0
1850 1 23.256892524240424 19.21988025262631 19.555501956714117 0 0 0
1851 1 23.364239316882003 19.396744516134028 15.29740267423686 0 0 0
1898 1 21.581994141309668 20.048839839020637 16.06369492863756 0 0 0
1904 1 21.502672423260318 18.942159715134057 17.894514090225343 0 0 0
1939 1 23.41429730157758 19.795852385487372 17.432854163992417 0 0 0
1967 1 21.560545648987144 17.75281831304814 19.768744321505054 0 0 0
1996 1 23.20671410277601 17.660260980630447 18.084121155787614 0 0 0
2022 1 17.15396898320357 22.12160274688993 16.043385548224776 0 0 0
2017 1 22.44710892561811 17.833809128398993 16.163176871169757 0 0 0
2019 1 21.962466478999602 20.736001796886406 19.18625505229358 0 0 0
820 1 0.9430865200901088 22.373792956703827 18.148736051580894 0 0 0
845 1 3.1135114637631496 22.701395466787194 17.49612857689535 0 0 0
846 1 2.323317190594879 22.738076770017443 19.714141854518296 0 0 0
909 1 3.4229171860841743 24.762535527906397 16.901551327129045 0 0 0
942 1 4.111248564972895 21.896074225995918 19.112187181455475 0 0 0
947 1 1.8786503595011934 24.30616642185735 18.178574742399054 0 0 0
980 1 4.015479346019774 24.23596409095757 18.96505109234117 0 0 0
996 1 1.9510188516682039 21.3455951309975 16.36108456233805 0 0 0
1009 1 2.953329334390444 23.140402174025553 15.367599202012697 0 0 0
1019 1 1.14402653057088 23.438978151039 16.304118634557213 0 0 0
807 1 6.730012108863092 24.56274403430743 18.774763807549654 0 0 0
963 1 5.771253877403427 22.95838653424818 19.517352018076526 0 0 0
813 1 7.874184159466037 20.783785918533706 17.738278811530304 0 0 0
843 1 5.278847770375342 23.531176346403495 17.41154347564297 0 0 0
844 1 7.526659935205721 22.85094854533257 17.58752887427683 0 0 0
855 1 7.541682649120298 21.73473713883896 19.585670207771614 0 0 0
885 1 7.134953078908262 24.72354450293593 16.681077595774095 0 0 0
923 1 6.676401963887145 21.188117450829292 16.042771342898824 0 0 0
928 1 5.265416866056821 0.610267089343977 17.3876865131934 0 1 0
957 1 5.784675931083033 21.531307509429503 17.845745020012078 0 0 0
998 1 4.653968983224034 22.12160274692882 16.043385548225537 0 0 0
785 1 8.47591397929632 22.00572220870339 15.6229475941703 0 0 0
788 1 9.84236456350988 21.761435840322015 17.296342316231744 0 0 0
819 1 8.850451308448172 24.73332630330523 18.102773624313706 0 0 0
825 1 10.781252723615122 23.671437222890383 18.056881425890495 0 0 0
834 1 12.453456864438436 24.689663838433585 17.515827135781137 0 0 0
835 1 9.199776008679606 22.798018438437808 19.023775495001086 0 0 0
890 1 12.659981340970267 0.1250831676817656 15.363246690271373 0 1 0
1981 1 18.284675931093748 21.53130750942176 17.84574502000558 0 0 0
925 1 11.432699786156247 23.493239000576892 16.040627912499 0 0 0
939 1 10.696003016075187 21.62420564077376 15.305816254631685 0 0 0
946 1 12.505078999583686 23.65894781540168 19.43590427058081 0 0 0
948 1 9.322740177317788 23.680571885867966 16.429386789922408 0 0 0
974 1 11.969745965458728 21.746361105721775 16.964924617522147 0 0 0
979 1 11.306174955123804 21.88163590167432 19.039174460689754 0 0 0
1844 1 13.443086520138396 22.37379295667751 18.148736051596497 0 0 0
1869 1 15.613511463753017 22.701395466768712 17.49612857689656 0 0 0
1870 1 14.823317190616237 22.738076770005232 19.714141854518306 0 0 0
1933 1 15.92291718607814 24.762535527895466 16.901551327126516 0 0 0
1966 1 16.61124856498114 21.89607422597877 19.112187181443822 0 0 0
1971 1 14.378650359478193 24.30616642184065 18.17857474239026 0 0 0
2004 1 16.515479346020616 24.235964090939316 18.96505109233158 0 0 0
2020 1 14.451018851677842 21.34559513097309 16.36108456231988 0 0 0
2033 1 15.453329334374711 23.140402174016973 15.367599202022076 0 0 0
2043 1 13.644026530543176 23.438978151020578 16.30411863456253 0 0 0
1831 1 19.230012108871332 24.562744034310185 18.774763807526217 0 0 0
288 1 2.715377098903472 3.7854301986131125 23.55921793749396 0 0 0
351 1 3.2223099429233857 1.8799840500777643 22.638733757616745 0 0 0
388 1 2.073133077894816 2.2154572313991068 20.362107218599768 0 0 0
390 1 1.100504375477748 3.2037704468569985 22.00375950065186 0 0 0
412 1 1.227161684080079 2.003171826552539 23.746472606839323 0 0 0
425 1 1.9908233873502026 24.928760600792998 24.01373037162162 0 -1 0
444 1 1.596869737266332 0.9127033992695317 21.864775541056463 0 0 0
469 1 3.590918604623466 0.722179089852447 20.709081573165104 0 0 0
386 1 1.040986961677763 4.390018714502489 20.12522582861737 0 0 0
274 1 7.467054162959577 24.13016411724201 22.41877054710687 0 -1 0
285 1 6.2018265141782445 24.56476053570886 24.059313938156134 0 -1 0
337 1 5.077254730683189 1.9565192276849181 21.32916387547031 0 0 0
345 1 7.564919191043159 4.517116587689782 23.562111072900446 0 0 0
349 1 4.519442523849428 0.17975643736637584 22.48353906026534 0 0 0
350 1 6.432592074552065 2.9410681438187165 24.26646422628107 0 0 0
366 1 6.615777384613001 1.0764270711036097 22.639698553525907 0 0 0
428 1 4.837878133161422 3.332588353261066 22.86651988481458 0 0 0
453 1 5.035496383331769 1.4481277244260442 24.005486309355 0 0 0
464 1 7.156989731487477 1.2477925955524738 20.558481727962107 0 0 0
496 1 8.155462618401776 2.326613752416064 23.159768215735124 0 0 0
262 1 8.70340308591709 0.38596378174331897 23.816454390493284 0 0 0
286 1 10.680008325046387 1.3787120333283125 20.755215184238164 0 0 0
299 1 8.896474036479015 0.3535793061653807 21.723567086350776 0 0 0
320 1 12.265456835940045 0.08185131696769687 20.833952561225566 0 0 0
325 1 11.792275164656024 3.154129409912162 23.697059191089966 0 0 0
480 1 10.17185841722162 24.191168866308495 20.254668353771706 0 -1 0
329 1 8.931641944715807 2.3946538886660282 21.250135001987765 0 0 0
407 1 10.819306741430397 3.3759844306700435 21.57532914509288 0 0 0
419 1 10.194878306415163 1.7171216821242663 22.904875059216902 0 0 0
447 1 9.675861257011439 3.754711343389104 23.365877925412132 0 0 0
2048 1 21.362466313979976 21.74172482214724 24.674061343170848 0 0 0
499 1 10.784421167712482 24.74827973220611 22.467353125460807 0 -1 0
1942 1 18.144711712713054 18.597336979448286 20.041868941300002 0 0 0
501 1 11.981374880942354 0.9247782909522694 24.122358812746892 0 0 0
506 1 12.18215072239537 1.719622541452504 22.169574311595056 0 0 0
1312 1 15.215377098917067 3.7854301986242596 23.55921793747213 0 0 0
1375 1 15.722309942937107 1.8799840500982912 22.63873375758291 0 0 0
1412 1 14.573133077903046 2.2154572313896876 20.362107218593884 0 0 0
1414 1 13.600504375489239 3.203770446856211 22.003759500638434 0 0 0
1436 1 13.727161684101484 2.003171826558641 23.74647260682688 0 0 0
1449 1 14.490823387373155 24.928760600792852 24.013730371603053 0 -1 0
1468 1 14.096869737288928 0.9127033992519497 21.86477554105303 0 0 0
1493 1 16.090918604633675 0.7221790898370645 20.70908157314945 0 0 0
1410 1 13.540986961705594 4.3900187144990905 20.125225828596328 0 0 0
1298 1 19.967054162970406 24.130164117225103 22.418770547074296 0 -1 0
1309 1 18.70182651420761 24.564760535704995 24.059313938136093 0 -1 0
1361 1 17.57725473069015 1.956519227681543 21.329163875448828 0 0 0
1369 1 20.06491919103959 4.517116587697882 23.56211107289485 0 0 0
1373 1 17.019442523842656 0.17975643735953692 22.483539060253115 0 0 0
1374 1 18.932592074549547 2.941068143836714 24.266464226298584 0 0 0
1390 1 19.115777384639227 1.0764270710910464 22.639698553490305 0 0 0
1452 1 17.33787813316697 3.332588353276263 22.86651988479786 0 0 0
1477 1 17.535496383359273 1.4481277244325412 24.005486309314133 0 0 0
1488 1 19.656989731483954 1.2477925955459237 20.55848172792028 0 0 0
1520 1 20.655462618397184 2.326613752418019 23.159768215757847 0 0 0
1286 1 21.203403085911727 0.38596378172890905 23.816454390463964 0 0 0
1310 1 23.180008325025547 1.3787120333366185 20.755215184231826 0 0 0
1323 1 21.396474036484367 0.3535793061392873 21.723567086320713 0 0 0
1344 1 24.76545683593343 0.08185131698879289 20.833952561228315 0 0 0
1349 1 24.292275164637548 3.1541294099139123 23.697059191102927 0 0 0
1504 1 22.67185841723602 24.191168866306096 20.25466835374204 0 -1 0
1353 1 21.431641944672492 2.39465388864048 21.250135001987214 0 0 0
1431 1 23.319306741394747 3.3759844306734608 21.575329145095488 0 0 0
1443 1 22.694878306398703 1.7171216821121436 22.904875059200513 0 0 0
1471 1 22.175861257006588 3.7547113433845345 23.365877925438156 0 0 0
2006 1 22.906037823969168 24.318519245534695 24.79394058007834 0 0 0
1523 1 23.284421167704306 24.748279732197062 22.46735312546159 0 -1 0
918 1 5.64471171272712 18.597336979438616 20.041868941300788 0 0 0
1525 1 24.481374880919876 0.9247782909480073 24.12235881275178 0 0 0
1530 1 24.682150722371848 1.7196225414679338 22.169574311606603 0 0 0
271 1 3.1349495395524207 3.6390267411322723 21.439119860819687 0 0 0
281 1 0.8781843867371258 4.638321568047981 23.81146911182466 0 0 0
282 1 1.8468753972908474 7.422341473602251 21.627117145453475 0 0 0
290 1 2.2846622986641276 6.280125266066968 23.854787806406595 0 0 0
302 1 24.725800794296603 8.348182760953424 24.049704647459706 -1 0 0
365 1 3.673459203677257 5.897053339236718 20.9286168954993 0 0 0
369 1 24.74507385844628 4.870143895472621 21.99670546191063 -1 0 0
377 1 1.8717102513600956 5.3227158511438715 21.879254360466753 0 0 0
383 1 3.503863974997119 7.86588665780949 20.42120691337101 0 0 0
410 1 3.542069947013067 7.709851328434725 22.732208395552846 0 0 0
448 1 3.969302705110258 5.364766543982173 22.836992452487788 0 0 0
1978 1 24.183597586757084 22.990516701997194 23.388671313273992 0 0 0
257 1 6.800009825957365 3.102374083111645 21.744417624766065 0 0 0
318 1 7.6521779916439225 6.128434704663265 21.43442531383609 0 0 0
376 1 6.032790659161769 5.079375960135105 22.148543683550905 0 0 0
392 1 6.902587594367576 6.700329321048065 23.32644171094095 0 0 0
399 1 5.288592294945372 7.036111776143146 21.817516692594083 0 0 0
438 1 4.8604697246595805 6.8479419834969155 24.110456354101068 0 0 0
1957 1 22.891732720918235 21.49800282829401 22.827764468724038 0 0 0
456 1 4.947392088674758 4.122988360075249 20.729189092180246 0 0 0
992 1 10.171858417059825 11.691168866351088 20.25466835364674 0 0 0
508 1 5.5449867273860605 4.841849749566858 24.244248678403938 0 0 0
260 1 10.366409946025556 7.407328585343699 24.461672739130783 0 0 0
264 1 8.571245050183522 8.044037241242922 22.98641194653945 0 0 0
280 1 10.276868203869187 5.496435504141084 21.498400749410546 0 0 0
1927 1 23.538066634477957 20.88729073093755 20.81196358456262 0 0 0
324 1 9.247292851091531 7.3741983196835905 21.098557914268795 0 0 0
342 1 8.546793779028459 4.302348204555991 21.663178278965148 0 0 0
355 1 12.476208583053984 6.7042607156736045 20.774742231235084 0 0 0
356 1 11.041409407099325 5.282620981479625 23.738991934638022 0 0 0
455 1 9.098193583040548 6.026432884988077 23.114270545693408 0 0 0
492 1 11.052076986287274 7.072701828086228 22.499670687764123 0 0 0
509 1 12.996316775322844 6.673946653147793 22.93742511953039 0 0 0
1295 1 15.634949539554643 3.639026741158226 21.43911986077899 0 0 0
1305 1 13.378184386744628 4.638321568047775 23.811469111812038 0 0 0
1306 1 14.346875397277486 7.422341473620065 21.627117145463348 0 0 0
1314 1 14.784662298655578 6.280125266075126 23.854787806404143 0 0 0
1326 1 12.22580079429498 8.348182760952369 24.049704647452835 0 0 0
1389 1 16.173459203692808 5.897053339240383 20.92861689547623 0 0 0
1393 1 12.24507385846412 4.870143895483723 21.996705461887057 0 0 0
1401 1 14.371710251368317 5.322715851159614 21.879254360453892 0 0 0
1407 1 16.00386397496527 7.865886657839946 20.421206913396617 0 0 0
1434 1 16.042069947011846 7.70985132845515 22.732208395558366 0 0 0
1472 1 16.469302705104102 5.364766544003733 22.836992452475357 0 0 0
1920 1 0.20101713841009392 21.25143978974493 22.154964938278795 1 0 0
1281 1 19.30000982595675 3.102374083108327 21.744417624763425 0 0 0
1342 1 20.152177991648635 6.128434704643746 21.43442531384413 0 0 0
1400 1 18.53279065915148 5.079375960137195 22.148543683534367 0 0 0
1416 1 19.402587594363588 6.700329321052978 23.326441710942433 0 0 0
1423 1 17.788592294934126 7.036111776148792 21.81751669258622 0 0 0
1462 1 17.360469724656312 6.847941983502912 24.110456354106162 0 0 0
1876 1 21.874827758217407 23.293333037405763 23.0851664738349 0 0 0
1480 1 17.447392088688144 4.122988360059306 20.72918909214696 0 0 0
2016 1 22.671858417064062 11.691168866346338 20.254668353649958 0 0 0
1532 1 18.044986727383925 4.8418497495788255 24.244248678384437 0 0 0
1284 1 22.866409946016883 7.407328585351177 24.46167273914385 0 0 0
1288 1 21.071245050178653 8.044037241245269 22.986411946538905 0 0 0
1304 1 22.77686820386415 5.496435504151634 21.49840074941657 0 0 0
1874 1 0.2134674754460418 24.13531001731245 24.862703973151675 1 0 0
1348 1 21.747292851086844 7.37419831966958 21.098557914271986 0 0 0
1366 1 21.046793779044286 4.302348204538809 21.66317827896914 0 0 0
1379 1 24.976208583041863 6.704260715653483 20.77474223125372 0 0 0
1380 1 23.541409407084807 5.282620981477788 23.738991934655697 0 0 0
1479 1 21.598193583036327 6.02643288499056 23.114270545706795 0 0 0
1516 1 23.55207698628852 7.072701828080692 22.49967068779467 0 0 0
1533 1 0.49631677533396035 6.673946653148046 22.937425119536265 1 0 0
1681 1 24.874180707599592 18.899924131764372 24.85240990250476 0 0 -1
353 1 0.8843277655996007 10.724780176735681 21.313663103482824 0 0 0
364 1 0.347816840053287 12.097414237432933 22.78221072687913 0 0 0
379 1 2.6643300571334234 11.585562146675716 22.286173092280684 0 0 0
389 1 2.495935085252404 9.394118960525034 21.615147979885727 0 0 0
402 1 0.6974148697425314 8.876159536258392 20.171096792546894 0 0 0
414 1 1.9644513027975532 12.16932416275912 20.226266302843335 0 0 0
420 1 1.962770788070868 8.398326829540906 23.981370616323098 0 0 0
461 1 1.2743910626913169 10.23542354296821 23.33100429608365 0 0 0
474 1 3.644415637905083 9.86243742258645 23.25097721712027 0 0 0
490 1 4.753286938773908 9.185682477154687 21.330354042441883 0 0 0
503 1 4.124421050399824 11.743925705748875 24.288026087074652 0 0 0
261 1 7.386559867491724 9.769387361311079 23.306175667149716 0 0 0
279 1 5.897642029273898 12.119249243044539 20.92704677959871 0 0 0
303 1 8.02417264659742 11.24933752128653 24.911850345682183 0 0 0
347 1 5.377467609826789 10.806621562225228 22.636248683578934 0 0 0
348 1 4.023877059671566 11.022910556368076 20.875371579815965 0 0 0
382 1 5.608153588245482 8.640847726823518 23.130870728490414 0 0 0
398 1 7.11934884340891 8.117848091273354 21.49312727388434 0 0 0
1430 1 18.1447117127855 6.097336979454333 20.04186894127987 0 0 0
473 1 6.66602620518127 8.206788392496128 24.858311508146123 0 0 0
488 1 7.972112524330789 11.464171253395255 20.283588498561254 0 0 0
498 1 6.7141528372455825 10.057568279116113 21.28830458057683 0 0 0
272 1 9.01522361896634 9.679733120551186 21.21583752827558 0 0 0
443 1 8.451904601716858 7.112804772764994 24.968559838603863 0 0 0
304 1 11.309246169784062 10.399126040763978 21.26123306004348 0 0 0
338 1 12.713467475382389 11.635310017333547 24.862703973025976 0 0 0
340 1 9.374827758030115 10.79333303740175 23.085166473822312 0 0 0
384 1 12.70101713824898 8.751439789666811 22.154964938248195 0 0 0
391 1 11.038066634393994 8.387290730941633 20.81196358460713 0 0 0
421 1 10.391732720726042 8.998002828263225 22.82776446874077 0 0 0
442 1 11.68359758660792 10.4905167019583 23.38867131322839 0 0 0
470 1 10.406037823807418 11.818519245468428 24.793940580030224 0 0 0
512 1 8.86246631384295 9.24172482214847 24.674061343181055 0 0 0
657 1 12.374180707590128 18.899924131764916 24.852409902492408 0 0 -1
1377 1 13.384327765609166 10.724780176773066 21.313663103482753 0 0 0
1388 1 12.847816840040684 12.097414237449062 22.7822107268862 0 0 0
1403 1 15.164330057139868 11.585562146726431 22.28617309227088 0 0 0
1413 1 14.995935085251453 9.39411896055372 21.615147979886668 0 0 0
1426 1 13.197414869739811 8.876159536291395 20.17109679254594 0 0 0
1438 1 14.464451302802694 12.169324162781157 20.22626630282223 0 0 0
1444 1 14.462770788062107 8.398326829551308 23.981370616316703 0 0 0
1485 1 13.774391062703904 10.2354235429932 23.331004296081247 0 0 0
1498 1 16.144415637897314 9.862437422614562 23.250977217117015 0 0 0
1514 1 17.253286938780906 9.185682477162601 21.330354042436248 0 0 0
1527 1 16.624421050385553 11.74392570575804 24.288026087074705 0 0 0
1285 1 19.88655986749191 9.769387361310105 23.306175667155312 0 0 0
1303 1 18.39764202928609 12.119249243037602 20.92704677960174 0 0 0
1327 1 20.524172646603407 11.249337521291077 24.91185034567803 0 0 0
1371 1 17.877467609832795 10.806621562218446 22.636248683581933 0 0 0
1372 1 16.523877059668614 11.022910556376413 20.875371579815546 0 0 0
1406 1 18.108153588238984 8.640847726826973 23.130870728491605 0 0 0
1422 1 19.61934884339797 8.11784809126035 21.493127273880695 0 0 0
1993 1 19.513543366414794 17.077070415669393 20.159301273739448 0 0 0
1497 1 19.166026205167764 8.206788392506775 24.858311508151484 0 0 0
1512 1 20.472112524342695 11.464171253389221 20.283588498579356 0 0 0
1522 1 19.21415283726164 10.057568279111578 21.288304580583848 0 0 0
1296 1 21.51522361897357 9.679733120521123 21.21583752826229 0 0 0
955 1 8.45190460179465 19.61280477277358 24.968559838690208 0 0 0
1328 1 23.809246169775854 10.399126040745184 21.261233060037544 0 0 0
1362 1 0.21346747537361543 11.635310017325512 24.86270397302212 1 0 0
1364 1 21.874827758028367 10.793333037410717 23.08516647378423 0 0 0
1408 1 0.2010171382493625 8.75143978964696 22.154964938243552 1 0 0
1415 1 23.53806663439346 8.38729073091376 20.811963584621893 0 0 0
1445 1 22.8917327207265 8.998002828259366 22.8277644687475 0 0 0
1466 1 24.183597586602406 10.490516701956992 23.388671313222083 0 0 0
1494 1 22.90603782381261 11.818519245458731 24.793940580016685 0 0 0
1536 1 21.36246631386424 9.241724822169912 24.674061343167438 0 0 0
800 1 2.715377098751949 16.28543019880722 23.559217937531038 0 0 0
863 1 3.2223099427006314 14.379984050251403 22.638733757650577 0 0 0
900 1 2.0731330777785786 14.715457231504606 20.36210721856449 0 0 0
902 1 1.1005043753180288 15.70377044689032 22.00375950065277 0 0 0
924 1 1.2271616839022115 14.503171826616972 23.746472606850116 0 0 0
937 1 1.9908233872651573 12.428760600908854 24.013730371474143 0 0 0
956 1 1.5968697371695495 13.41270339930879 21.864775541002462 0 0 0
981 1 3.590918604370502 13.222179089844005 20.70908157309505 0 0 0
898 1 1.0409869616528327 16.890018714482498 20.1252258285529 0 0 0
786 1 7.46705416280652 11.630164117283687 22.418770546963405 0 0 0
797 1 6.2018265140659805 12.064760535691722 24.05931393807693 0 0 0
849 1 5.077254730410881 14.456519227705195 21.329163875469426 0 0 0
857 1 7.564919190951053 17.017116587622 23.56211107307125 0 0 0
861 1 4.519442523425079 12.679756437383938 22.483539060250823 0 0 0
862 1 6.432592074371743 15.441068143749204 24.266464226259775 0 0 0
878 1 6.615777384351507 13.57642707106703 22.639698553463973 0 0 0
940 1 4.837878132977112 15.832588353333662 22.866519884865 0 0 0
965 1 5.035496383117897 13.948127724420976 24.005486309307393 0 0 0
976 1 7.1569897313347814 13.747792595513461 20.55848172790608 0 0 0
1008 1 8.155462618256124 14.826613752295453 23.159768215741334 0 0 0
774 1 8.703403085752791 12.885963781644522 23.816454390394515 0 0 0
798 1 10.680008324906414 13.87871203330354 20.755215184148078 0 0 0
811 1 8.896474036363742 12.853579306102475 21.72356708623886 0 0 0
832 1 12.265456835788166 12.581851316923272 20.8339525611405 0 0 0
837 1 11.792275164483346 15.65412940989552 23.697059191077635 0 0 0
1169 1 24.874180707723166 6.39992413177221 24.852409902597095 0 0 -1
841 1 8.931641944566014 14.894653888662248 21.25013500195362 0 0 0
919 1 10.819306741327715 15.875984430633816 21.57532914511091 0 0 0
931 1 10.194878306264993 14.217121682006583 22.904875059068104 0 0 0
959 1 9.675861256889721 16.254711343242935 23.36587792552611 0 0 0
1840 1 23.809246170043785 22.899126040789007 21.26123306009506 0 0 0
1011 1 10.784421167574157 12.248279732111563 22.467353125392187 0 0 0
969 1 7.0135433664296505 17.07707041567315 20.159301273731483 0 0 0
1013 1 11.981374880751654 13.424778290869835 24.122358812634555 0 0 0
1018 1 12.182150722250988 14.219622541403346 22.169574311551038 0 0 0
1824 1 15.215377098747478 16.28543019877623 23.559217937544812 0 0 0
1887 1 15.722309942691702 14.37998405019585 22.63873375767806 0 0 0
1924 1 14.573133077769779 14.715457231511778 20.362107218548985 0 0 0
1926 1 13.60050437530432 15.703770446890292 22.003759500658052 0 0 0
1948 1 13.727161683891188 14.503171826609446 23.746472606855185 0 0 0
1961 1 14.490823387263374 12.428760600917906 24.013730371476328 0 0 0
1980 1 14.09686973713469 13.412703399325894 21.864775540976552 0 0 0
2005 1 16.090918604366827 13.222179089855368 20.709081573103514 0 0 0
1922 1 13.540986961627308 16.89001871446778 20.12522582857021 0 0 0
1810 1 19.96705416279769 11.630164117300636 22.418770546978834 0 0 0
1821 1 18.701826514059256 12.06476053568853 24.059313938095002 0 0 0
1873 1 17.57725473041627 14.456519227693136 21.329163875478603 0 0 0
1881 1 20.064919190950032 17.017116587607237 23.56211107307792 0 0 0
1885 1 17.019442523462974 12.679756437380558 22.483539060250077 0 0 0
1886 1 18.93259207438061 15.441068143721406 24.26646422625186 0 0 0
1902 1 19.115777384348792 13.576427071076678 22.639698553489712 0 0 0
1964 1 17.337878132975174 15.832588353300618 22.86651988488088 0 0 0
1989 1 17.535496383106217 13.948127724403843 24.005486309346114 0 0 0
2000 1 19.65698973133845 13.747792595506198 20.558481727920398 0 0 0
2032 1 20.655462618277014 14.826613752296222 23.159768215724817 0 0 0
1798 1 21.203403085766382 12.885963781650506 23.816454390400008 0 0 0
1822 1 23.18000832492451 13.878712033297443 20.75521518412572 0 0 0
1835 1 21.39647403636699 12.853579306108264 21.723567086245215 0 0 0
1856 1 24.76545683579801 12.581851316904764 20.83395256114008 0 0 0
1861 1 24.292275164485993 15.65412940989011 23.697059191064092 0 0 0
145 1 12.374180707730059 6.399924131773854 24.85240990259785 0 0 -1
1865 1 21.431641944581063 14.894653888670522 21.250135001938432 0 0 0
1943 1 23.319306741335993 15.875984430625374 21.575329145097218 0 0 0
1955 1 22.694878306282234 14.21712168201144 22.90487505904407 0 0 0
1983 1 22.1758612569041 16.254711343243184 23.36587792551635 0 0 0
1467 1 20.951904601699788 7.11280477279173 24.968559838610236 0 0 0
2035 1 23.28442116758652 12.248279732118341 22.467353125380583 0 0 0
457 1 7.013543366525915 4.577070415759819 20.15930127362138 0 0 0
2037 1 24.48137488076397 13.424778290864742 24.122358812619336 0 0 0
2042 1 24.68215072227603 14.219622541393612 22.169574311529924 0 0 0
783 1 3.1349495394207922 16.139026741232527 21.439119860814355 0 0 0
793 1 0.8781843865093949 17.138321568103574 23.811469111788803 0 0 0
794 1 1.8468753973554028 19.922341473667203 21.627117145366203 0 0 0
802 1 2.284662298554942 18.78012526604628 23.854787806442918 0 0 0
814 1 24.725800794343595 20.848182761012872 24.04970464741013 -1 0 0
877 1 3.673459203649609 18.39705333918215 20.928616895553322 0 0 0
881 1 24.745073858352455 17.37014389560997 21.996705461871684 -1 0 0
889 1 1.8717102512627404 17.822715851197582 21.8792543604595 0 0 0
895 1 3.5038639751849243 20.365886657761198 20.421206913426982 0 0 0
922 1 3.5420699470851393 20.20985132836703 22.732208395574737 0 0 0
960 1 3.969302705087244 17.864766544063173 22.836992452569447 0 0 0
1808 1 21.515223619131557 22.17973312050851 21.215837528277206 0 0 0
769 1 6.80000982576912 15.602374083017862 21.744417624828106 0 0 0
830 1 7.652177991621046 18.62843470463909 21.434425313841864 0 0 0
888 1 6.032790659132714 17.57937596009323 22.148543683642014 0 0 0
904 1 6.902587594478625 19.200329321070967 23.326441710983946 0 0 0
911 1 5.2885922950575415 19.536111776123775 21.817516692609978 0 0 0
950 1 4.860469724781729 19.347941983493026 24.11045635413746 0 0 0
2034 1 19.21415283737509 22.557568279139893 21.288304580576032 0 0 0
968 1 4.947392088591849 16.622988360043237 20.729189092185134 0 0 0
1474 1 16.5797632441109 8.72427135926935 24.96907172003239 0 0 0
1020 1 5.544986727339649 17.341849749554278 24.244248678500036 0 0 0
772 1 10.366409946052736 19.90732858540269 24.46167273906901 0 0 0
776 1 8.57124505047581 20.544037241142522 22.98641194654613 0 0 0
792 1 10.276868203679916 17.99643550401285 21.498400749483817 0 0 0
2024 1 20.472112524518003 23.96417125341443 20.283588498659853 0 0 0
836 1 9.247292851118791 19.87419831963898 21.098557914207074 0 0 0
854 1 8.54679377882498 16.802348204457388 21.663178279147953 0 0 0
867 1 12.476208583116414 19.204260715738283 20.7747422311523 0 0 0
868 1 11.041409406943645 17.782620981416656 23.738991934657818 0 0 0
967 1 9.098193582943873 18.526432884853904 23.11427054579078 0 0 0
1004 1 11.052076986258646 19.572701828009517 22.4996706876944 0 0 0
1021 1 12.996316775362372 19.17394665328474 22.937425119470856 0 0 0
1807 1 15.634949539423927 16.13902674118415 21.439119860854216 0 0 0
1817 1 13.378184386517146 17.138321568107727 23.811469111793183 0 0 0
1818 1 14.346875397379812 19.922341473653017 21.62711714533918 0 0 0
1826 1 14.784662298577365 18.78012526604396 23.854787806436175 0 0 0
1838 1 12.225800794348146 20.848182761018727 24.049704647413744 0 0 0
1901 1 16.17345920365142 18.397053339154354 20.92861689556841 0 0 0
1905 1 12.24507385835185 17.37014389561844 21.996705461882367 0 0 0
1913 1 14.371710251270121 17.822715851179645 21.87925436046338 0 0 0
1919 1 16.00386397524537 20.365886657707573 20.421206913394805 0 0 0
1946 1 16.04206994709609 20.209851328345643 22.732208395557546 0 0 0
1984 1 16.469302705093618 17.864766544029187 22.83699245258118 0 0 0
2009 1 19.16602620525067 20.70678839246922 24.858311508214236 0 0 0
1793 1 19.300009825773866 15.602374083008824 21.744417624830092 0 0 0
1854 1 20.152177991616636 18.62843470464103 21.434425313829607 0 0 0
1912 1 18.5327906591382 17.57937596007985 22.148543683653052 0 0 0
1928 1 19.402587594478057 19.20032932105812 23.326441710978226 0 0 0
1935 1 17.788592295076008 19.536111776112467 21.817516692608464 0 0 0
1974 1 17.360469724777666 19.34794198347692 24.110456354130193 0 0 0
2021 1 24.89227140316022 15.043171092131374 20.125665963019287 0 0 0
1992 1 17.447392088588273 16.622988360035464 20.729189092208767 0 0 0
962 1 4.079763244252129 21.22427135925768 24.969071720074908 0 0 0
2044 1 18.044986727341097 17.341849749534198 24.244248678513845 0 0 0
1796 1 22.866409946055285 19.90732858539545 24.461672739060067 0 0 0
1800 1 21.07124505046798 20.544037241142885 22.986411946552764 0 0 0
1816 1 22.77686820367368 17.996435503995997 21.498400749486706 0 0 0
1934 1 19.619348843591343 20.61784809130346 21.493127274003506 0 0 0
1860 1 21.747292851122943 19.874198319645558 21.09855791421152 0 0 0
1878 1 21.04679377881515 16.802348204451718 21.6631782791535 0 0 0
1891 1 24.97620858311644 19.20426071574486 20.774742231141897 0 0 0
1892 1 23.541409406954212 17.782620981426504 23.738991934656493 0 0 0
1991 1 21.598193582942017 18.526432884848735 23.114270545781686 0 0 0
2028 1 23.55207698624631 19.57270182800769 22.499670687669074 0 0 0
2045 1 0.4963167753338543 19.173946653268786 22.93742511947607 1 0 0
450 1 4.079763244117758 8.724271359251135 24.969071720037235 0 0 0
865 1 0.8843277658926939 23.22478017699256 21.313663103612843 0 0 0
876 1 0.34781684012034175 24.597414237530003 22.782210727022797 0 0 0
891 1 2.6643300574386064 24.0855621468342 22.286173092381194 0 0 0
901 1 2.4959350854273716 21.89411896058149 21.61514797986543 0 0 0
914 1 0.6974148697825588 21.376159536561758 20.17109679261844 0 0 0
926 1 1.9644513030504303 24.669324162891197 20.226266302835093 0 0 0
932 1 1.9627707881469107 20.89832682957229 23.981370616176275 0 0 0
973 1 1.2743910628785613 22.735423543095376 23.331004296142694 0 0 0
986 1 3.6444156380256825 22.362437422565222 23.250977217129794 0 0 0
1002 1 4.753286938929075 21.685682477135305 21.330354042500783 0 0 0
1015 1 4.124421050513604 24.24392570572091 24.288026087080137 0 0 0
773 1 7.386559867673996 22.269387361166476 23.30617566710317 0 0 0
791 1 5.897642029528803 24.619249243026182 20.92704677961597 0 0 0
815 1 8.02417264667621 23.749337521280097 24.91185034562628 0 0 0
859 1 5.377467610014571 23.306621562151 22.636248683656703 0 0 0
860 1 4.023877059867109 23.522910556376488 20.875371579871306 0 0 0
894 1 5.608153588327978 21.14084772678364 23.13087072856508 0 0 0
910 1 7.1193488435688534 20.617848091298466 21.493127274012192 0 0 0
997 1 12.3922714031499 15.043171092112374 20.125665963029988 0 0 0
985 1 6.666026205241922 20.70678839247883 24.858311508221533 0 0 0
1000 1 7.9721125245202735 23.96417125342292 20.283588498690204 0 0 0
1010 1 6.714152837384045 22.557568279149933 21.288304580591277 0 0 0
784 1 9.015223619129477 22.17973312049058 21.215837528281906 0 0 0
1979 1 20.951904601804628 19.612804772753954 24.968559838687636 0 0 0
816 1 11.309246170049212 22.89912604078107 21.261233060089655 0 0 0
850 1 12.713467475468526 24.135310017313746 24.86270397314001 0 0 0
852 1 9.374827758220832 23.293333037418776 23.085166473818262 0 0 0
896 1 12.701017138424023 21.25143978973721 22.154964938268602 0 0 0
903 1 11.038066634482314 20.887290730918732 20.811963584577526 0 0 0
933 1 10.391732720927415 21.498002828299036 22.82776446872814 0 0 0
954 1 11.683597586757536 22.990516702002825 23.38867131327181 0 0 0
982 1 10.406037823980874 24.3185192455398 24.793940580075322 0 0 0
1024 1 8.862466313993131 21.741724822160002 24.674061343157586 0 0 0
1986 1 16.57976324425673 21.224271359240895 24.96907172006882 0 0 0
1889 1 13.384327765902396 23.224780176975013 21.31366310360032 0 0 0
1900 1 12.847816840135444 24.597414237524724 22.782210727015343 0 0 0
1915 1 15.164330057443808 24.085562146799646 22.28617309237015 0 0 0
1925 1 14.995935085440179 21.894118960555037 21.615147979848302 0 0 0
1938 1 13.19741486978851 21.376159536548894 20.171096792629918 0 0 0
1950 1 14.464451303055569 24.66932416287857 20.226266302825017 0 0 0
1956 1 14.46277078815988 20.898326829571428 23.981370616166156 0 0 0
1997 1 13.774391062881643 22.735423543085055 23.331004296133372 0 0 0
2010 1 16.144415638037373 22.36243742254799 23.25097721712257 0 0 0
2026 1 17.253286938931883 21.68568247712694 21.330354042496367 0 0 0
2039 1 16.62442105054182 24.243925705713956 24.288026087074176 0 0 0
1797 1 19.88655986767187 22.26938736117265 23.306175667106377 0 0 0
1815 1 18.397642029529322 24.61924924302408 20.927046779600477 0 0 0
1839 1 20.524172646693582 23.7493375212806 24.911850345637802 0 0 0
1883 1 17.877467610021604 23.306621562147498 22.636248683648212 0 0 0
1884 1 16.523877059884455 23.52291055636882 20.875371579863934 0 0 0
1918 1 18.108153588341054 21.140847726774183 23.130870728553575 0 0 0
255 1 5.663132485652274 10.074612587625042 24.647859462725656 0 0 -1
1279 1 18.16313248565033 10.074612587634313 24.64785946273069 0 0 -1
767 1 5.663132485841076 22.574612587619413 24.647859462799392 0 0 -1
1791 1 18.163132485839604 22.574612587607156 24.647859462792887 0 0 -1
485 1 12.39227140326714 2.5431710921446005 20.12566596304867 0 0 0
1509 1 24.892271403259333 2.54317109214103 20.125665963060207 0 0 0
1481 1 19.513543366544834 4.577070415740567 20.159301273612922 0 0 0
406 1 5.64471171276271 6.097336979470203 20.041868941287426 0 0 0
90 1 3.0734263238107715 1.4599059463155335 24.70953413791602 0 0 -1
60 1 4.175065269000195 3.1606619288740436 24.977384844283034 0 0 -1
1888 1 15.013406614158885 23.004860420449575 24.893763358549563 0 0 0
864 1 2.5134066141456834 23.004860420446015 24.893763358567035 0 0 0
1114 1 15.57342632383988 1.4599059463160131 24.709534137881953 0 0 -1
1084 1 16.675065269018393 3.16066192887565 24.97738484427019 0 0 -1
1862 1 22.754800060233194 14.175791433863429 24.94073524403546 0 0 0
838 1 10.254800060224959 14.175791433860288 24.940735244059503 0 0 0
602 1 3.0734263236488495 13.959905946395327 24.70953413793889 0 0 -1
572 1 4.175065268874867 15.660661928934436 24.9773848443316 0 0 -1
1376 1 15.013406613938871 10.504860420589386 24.89376335847433 0 0 0
352 1 2.513406613946312 10.504860420586013 24.893763358460543 0 0 0
1626 1 15.57342632363504 13.95990594640031 24.709534137972042 0 0 -1
1596 1 16.67506526887259 15.660661928928704 24.97738484434694 0 0 -1
1350 1 22.754800060406854 1.6757914338099844 24.940735244214114 0 0 0
326 1 10.254800060425202 1.6757914337743542 24.9407352442391 0 0 0
1503 1 23.93590983064847 4.685446241921034 20.043448193172274 0 0 0
479 1 11.435909830664787 4.685446241928916 20.043448193154386 0 0 0
991 1 11.435909830668258 17.185446241923177 20.043448193221586 0 0 0
2015 1 23.935909830688853 17.185446241933583 20.043448193203677 0 0 0

Velocities

36 0 0 0
55 0 0 0
63 0 0 0
74 0 0 0
79 0 0 0
796 0 0 0
137 0 0 0
159 0 0 0
162 0 0 0
168 0 0 0
210 0 0 0
7 0 0 0
42 0 0 0
1820 0 0 0
114 0 0 0
124 0 0 0
140 0 0 0
149 0 0 0
161 0 0 0
167 0 0 0
207 0 0 0
12 0 0 0
19 0 0 0
1756 0 0 0
56 0 0 0
65 0 0 0
107 0 0 0
111 0 0 0
119 0 0 0
129 0 0 0
131 0 0 0
152 0 0 0
1308 0 0 0
196 0 0 0
284 0 0 0
1060 0 0 0
1079 0 0 0
1087 0 0 0
1098 0 0 0
1103 0 0 0
219 0 0 0
1161 0 0 0
1183 0 0 0
1186 0 0 0
1192 0 0 0
1234 0 0 0
1031 0 0 0
1066 0 0 0
1243 0 0 0
1138 0 0 0
1148 0 0 0
1164 0 0 0
1173 0 0 0
1185 0 0 0
1191 0 0 0
1231 0 0 0
1036 0 0 0
1043 0 0 0
1742 0 0 0
1080 0 0 0
1089 0 0 0
1131 0 0 0
1135 0 0 0
1143 0 0 0
1153 0 0 0
1155 0 0 0
1176 0 0 0
731 0 0 0
1220 0 0 0
2018 0 0 0
11 0 0 0
21 0 0 0
53 0 0 0
80 0 0 0
98 0 0 0
104 0 0 0
144 0 0 0
193 0 0 0
198 0 0 0
248 0 0 0
13 0 0 0
14 0 0 0
31 0 0 0
38 0 0 0
40 0 0 0
103 0 0 0
116 0 0 0
177 0 0 0
181 0 0 0
215 0 0 0
237 0 0 0
238 0 0 0
54 0 0 0
59 0 0 0
106 0 0 0
1716 0 0 0
994 0 0 0
166 0 0 0
183 0 0 0
184 0 0 0
203 0 0 0
225 0 0 0
1035 0 0 0
1045 0 0 0
1077 0 0 0
1104 0 0 0
1122 0 0 0
1128 0 0 0
1168 0 0 0
1217 0 0 0
1222 0 0 0
1272 0 0 0
1037 0 0 0
1038 0 0 0
1055 0 0 0
1062 0 0 0
1064 0 0 0
1127 0 0 0
1140 0 0 0
1201 0 0 0
1205 0 0 0
1239 0 0 0
1261 0 0 0
1262 0 0 0
1078 0 0 0
1083 0 0 0
1130 0 0 0
1707 0 0 0
1755 0 0 0
1190 0 0 0
1207 0 0 0
1208 0 0 0
1227 0 0 0
1249 0 0 0
50 0 0 0
1757 0 0 0
139 0 0 0
141 0 0 0
148 0 0 0
209 0 0 0
228 0 0 0
241 0 0 0
251 0 0 0
27 0 0 0
44 0 0 0
71 0 0 0
77 0 0 0
85 0 0 0
117 0 0 0
155 0 0 0
190 0 0 0
222 0 0 0
230 0 0 0
1693 0 0 0
17 0 0 0
20 0 0 0
1506 0 0 0
72 0 0 0
118 0 0 0
122 0 0 0
138 0 0 0
157 0 0 0
171 0 0 0
180 0 0 0
206 0 0 0
220 0 0 0
1074 0 0 0
733 0 0 0
1163 0 0 0
1165 0 0 0
1172 0 0 0
1233 0 0 0
1252 0 0 0
1265 0 0 0
1275 0 0 0
1051 0 0 0
1068 0 0 0
1095 0 0 0
1101 0 0 0
1109 0 0 0
1141 0 0 0
1179 0 0 0
1214 0 0 0
1246 0 0 0
1254 0 0 0
1674 0 0 0
1041 0 0 0
1044 0 0 0
482 0 0 0
1096 0 0 0
1142 0 0 0
1146 0 0 0
1162 0 0 0
1181 0 0 0
1195 0 0 0
1204 0 0 0
1230 0 0 0
1244 0 0 0
548 0 0 0
567 0 0 0
575 0 0 0
586 0 0 0
591 0 0 0
589 0 0 0
649 0 0 0
671 0 0 0
674 0 0 0
680 0 0 0
722 0 0 0
519 0 0 0
554 0 0 0
1613 0 0 0
626 0 0 0
636 0 0 0
652 0 0 0
661 0 0 0
673 0 0 0
679 0 0 0
719 0 0 0
524 0 0 0
531 0 0 0
1658 0 0 0
568 0 0 0
577 0 0 0
619 0 0 0
623 0 0 0
631 0 0 0
641 0 0 0
643 0 0 0
664 0 0 0
587 0 0 0
708 0 0 0
1171 0 0 0
1572 0 0 0
1591 0 0 0
1599 0 0 0
1610 0 0 0
1615 0 0 0
659 0 0 0
1673 0 0 0
1695 0 0 0
1698 0 0 0
1704 0 0 0
1746 0 0 0
1543 0 0 0
1578 0 0 0
1611 0 0 0
1650 0 0 0
1660 0 0 0
1676 0 0 0
1685 0 0 0
1697 0 0 0
1703 0 0 0
1743 0 0 0
1548 0 0 0
1555 0 0 0
1654 0 0 0
1592 0 0 0
1601 0 0 0
1643 0 0 0
1647 0 0 0
1655 0 0 0
1665 0 0 0
1667 0 0 0
1688 0 0 0
1099 0 0 0
1732 0 0 0
672 0 0 0
523 0 0 0
533 0 0 0
565 0 0 0
592 0 0 0
610 0 0 0
616 0 0 0
656 0 0 0
705 0 0 0
710 0 0 0
760 0 0 0
525 0 0 0
526 0 0 0
543 0 0 0
550 0 0 0
552 0 0 0
615 0 0 0
628 0 0 0
689 0 0 0
693 0 0 0
727 0 0 0
749 0 0 0
750 0 0 0
566 0 0 0
571 0 0 0
618 0 0 0
1608 0 0 0
1696 0 0 0
678 0 0 0
695 0 0 0
696 0 0 0
715 0 0 0
737 0 0 0
1547 0 0 0
1557 0 0 0
1589 0 0 0
1616 0 0 0
1634 0 0 0
1640 0 0 0
1680 0 0 0
1729 0 0 0
1734 0 0 0
1784 0 0 0
1549 0 0 0
1550 0 0 0
1567 0 0 0
1574 0 0 0
1576 0 0 0
1639 0 0 0
1652 0 0 0
1713 0 0 0
1717 0 0 0
1751 0 0 0
1773 0 0 0
1774 0 0 0
1590 0 0 0
1595 0 0 0
1642 0 0 0
1184 0 0 0
75 0 0 0
1702 0 0 0
1719 0 0 0
1720 0 0 0
1739 0 0 0
1761 0 0 0
562 0 0 0
1245 0 0 0
651 0 0 0
653 0 0 0
660 0 0 0
721 0 0 0
740 0 0 0
753 0 0 0
763 0 0 0
539 0 0 0
556 0 0 0
583 0 0 0
1683 0 0 0
597 0 0 0
629 0 0 0
667 0 0 0
702 0 0 0
734 0 0 0
742 0 0 0
1556 0 0 0
529 0 0 0
532 0 0 0
160 0 0 0
584 0 0 0
630 0 0 0
634 0 0 0
650 0 0 0
669 0 0 0
683 0 0 0
692 0 0 0
718 0 0 0
732 0 0 0
1586 0 0 0
221 0 0 0
1675 0 0 0
1677 0 0 0
1684 0 0 0
1745 0 0 0
1764 0 0 0
1777 0 0 0
1787 0 0 0
1563 0 0 0
1580 0 0 0
1607 0 0 0
147 0 0 0
1621 0 0 0
1653 0 0 0
1691 0 0 0
1726 0 0 0
1758 0 0 0
1766 0 0 0
1553 0 0 0
33 0 0 0
173 0 0 0
1057 0 0 0
1197 0 0 0
1709 0 0 0
1569 0 0 0
545 0 0 0
685 0 0 0
500 0 0 0
1524 0 0 0
1321 0 0 0
1712 0 0 0
1012 0 0 0
2036 0 0 0
809 0 0 0
688 0 0 0
176 0 0 0
297 0 0 0
1200 0 0 0
1833 0 0 0
1747 0 0 0
35 0 0 0
88 0 0 0
130 0 0 0
132 0 0 0
1714 0 0 0
1671 0 0 0
185 0 0 0
188 0 0 0
202 0 0 0
213 0 0 0
233 0 0 0
9 0 0 0
10 0 0 0
61 0 0 0
81 0 0 0
1664 0 0 0
578 0 0 0
1648 0 0 0
208 0 0 0
134 0 0 0
231 0 0 0
3 0 0 0
30 0 0 0
43 0 0 0
64 0 0 0
73 0 0 0
83 0 0 0
105 0 0 0
151 0 0 0
170 0 0 0
224 0 0 0
229 0 0 0
239 0 0 0
646 0 0 0
250 0 0 0
1603 0 0 0
1059 0 0 0
1112 0 0 0
1154 0 0 0
1156 0 0 0
1593 0 0 0
1587 0 0 0
1209 0 0 0
1212 0 0 0
1226 0 0 0
1237 0 0 0
1257 0 0 0
1033 0 0 0
1034 0 0 0
1085 0 0 0
1105 0 0 0
1584 0 0 0
1602 0 0 0
624 0 0 0
1232 0 0 0
1158 0 0 0
1255 0 0 0
1027 0 0 0
1054 0 0 0
1067 0 0 0
1088 0 0 0
1097 0 0 0
1107 0 0 0
1129 0 0 0
1175 0 0 0
1194 0 0 0
1248 0 0 0
1253 0 0 0
1263 0 0 0
1554 0 0 0
1274 0 0 0
15 0 0 0
26 0 0 0
49 0 0 0
102 0 0 0
109 0 0 0
113 0 0 0
121 0 0 0
127 0 0 0
153 0 0 0
530 0 0 0
235 0 0 0
246 0 0 0
249 0 0 0
1 0 0 0
2 0 0 0
62 0 0 0
101 0 0 0
115 0 0 0
120 0 0 0
125 0 0 0
150 0 0 0
200 0 0 0
201 0 0 0
216 0 0 0
24 0 0 0
37 0 0 0
58 0 0 0
68 0 0 0
86 0 0 0
99 0 0 0
1552 0 0 0
175 0 0 0
204 0 0 0
223 0 0 0
227 0 0 0
1039 0 0 0
1050 0 0 0
1073 0 0 0
1126 0 0 0
1133 0 0 0
1137 0 0 0
1145 0 0 0
1151 0 0 0
1177 0 0 0
18 0 0 0
1259 0 0 0
1270 0 0 0
1273 0 0 0
1025 0 0 0
1026 0 0 0
1086 0 0 0
1125 0 0 0
1139 0 0 0
1144 0 0 0
1149 0 0 0
1174 0 0 0
1224 0 0 0
1225 0 0 0
1240 0 0 0
1048 0 0 0
1061 0 0 0
1082 0 0 0
1092 0 0 0
1110 0 0 0
1123 0 0 0
1778 0 0 0
1199 0 0 0
1228 0 0 0
1247 0 0 0
1251 0 0 0
52 0 0 0
78 0 0 0
97 0 0 0
133 0 0 0
146 0 0 0
158 0 0 0
174 0 0 0
179 0 0 0
212 0 0 0
234 0 0 0
23 0 0 0
39 0 0 0
45 0 0 0
1042 0 0 0
87 0 0 0
92 0 0 0
142 0 0 0
1790 0 0 0
189 0 0 0
195 0 0 0
232 0 0 0
242 0 0 0
16 0 0 0
48 0 0 0
51 0 0 0
57 0 0 0
67 0 0 0
128 0 0 0
135 0 0 0
1768 0 0 0
178 0 0 0
211 0 0 0
1076 0 0 0
1102 0 0 0
1121 0 0 0
1157 0 0 0
1170 0 0 0
1182 0 0 0
1198 0 0 0
1203 0 0 0
1236 0 0 0
1258 0 0 0
1047 0 0 0
1063 0 0 0
1069 0 0 0
1670 0 0 0
1111 0 0 0
1116 0 0 0
1166 0 0 0
766 0 0 0
1213 0 0 0
1219 0 0 0
1256 0 0 0
1266 0 0 0
1040 0 0 0
1072 0 0 0
1075 0 0 0
1081 0 0 0
1091 0 0 0
1152 0 0 0
1159 0 0 0
1731 0 0 0
1202 0 0 0
1235 0 0 0
1725 0 0 0
547 0 0 0
600 0 0 0
642 0 0 0
644 0 0 0
1278 0 0 0
1678 0 0 0
697 0 0 0
700 0 0 0
714 0 0 0
725 0 0 0
745 0 0 0
521 0 0 0
522 0 0 0
573 0 0 0
593 0 0 0
1628 0 0 0
1090 0 0 0
1558 0 0 0
720 0 0 0
1136 0 0 0
743 0 0 0
515 0 0 0
542 0 0 0
555 0 0 0
576 0 0 0
585 0 0 0
595 0 0 0
617 0 0 0
663 0 0 0
682 0 0 0
736 0 0 0
741 0 0 0
751 0 0 0
112 0 0 0
762 0 0 0
1623 0 0 0
1571 0 0 0
1624 0 0 0
1666 0 0 0
1668 0 0 0
1046 0 0 0
1581 0 0 0
1721 0 0 0
1724 0 0 0
1738 0 0 0
1749 0 0 0
1769 0 0 0
1545 0 0 0
1546 0 0 0
1597 0 0 0
1617 0 0 0
1575 0 0 0
66 0 0 0
534 0 0 0
1744 0 0 0
1659 0 0 0
1767 0 0 0
1539 0 0 0
1566 0 0 0
1579 0 0 0
1600 0 0 0
1609 0 0 0
1619 0 0 0
1641 0 0 0
1687 0 0 0
1706 0 0 0
1760 0 0 0
1765 0 0 0
1775 0 0 0
22 0 0 0
1786 0 0 0
527 0 0 0
538 0 0 0
561 0 0 0
614 0 0 0
621 0 0 0
625 0 0 0
633 0 0 0
639 0 0 0
665 0 0 0
635 0 0 0
747 0 0 0
758 0 0 0
761 0 0 0
513 0 0 0
514 0 0 0
574 0 0 0
613 0 0 0
627 0 0 0
632 0 0 0
637 0 0 0
662 0 0 0
712 0 0 0
713 0 0 0
728 0 0 0
536 0 0 0
549 0 0 0
570 0 0 0
580 0 0 0
598 0 0 0
611 0 0 0
1559 0 0 0
687 0 0 0
716 0 0 0
735 0 0 0
739 0 0 0
1551 0 0 0
1562 0 0 0
1585 0 0 0
1638 0 0 0
1645 0 0 0
1649 0 0 0
1657 0 0 0
1663 0 0 0
1689 0 0 0
1147 0 0 0
1771 0 0 0
1782 0 0 0
1785 0 0 0
1537 0 0 0
1538 0 0 0
1598 0 0 0
1637 0 0 0
1651 0 0 0
1656 0 0 0
1661 0 0 0
1686 0 0 0
1736 0 0 0
1737 0 0 0
1752 0 0 0
1560 0 0 0
1573 0 0 0
1594 0 0 0
1604 0 0 0
1622 0 0 0
1635 0 0 0
1770 0 0 0
1711 0 0 0
1740 0 0 0
1759 0 0 0
1763 0 0 0
564 0 0 0
590 0 0 0
609 0 0 0
645 0 0 0
658 0 0 0
670 0 0 0
686 0 0 0
691 0 0 0
724 0 0 0
746 0 0 0
535 0 0 0
551 0 0 0
557 0 0 0
123 0 0 0
599 0 0 0
604 0 0 0
654 0 0 0
254 0 0 0
701 0 0 0
707 0 0 0
744 0 0 0
754 0 0 0
528 0 0 0
560 0 0 0
563 0 0 0
569 0 0 0
579 0 0 0
640 0 0 0
647 0 0 0
1748 0 0 0
690 0 0 0
723 0 0 0
1588 0 0 0
1614 0 0 0
1633 0 0 0
1669 0 0 0
1682 0 0 0
1694 0 0 0
1710 0 0 0
1715 0 0 0
143 0 0 0
1167 0 0 0
655 0 0 0
1679 0 0 0
1779 0 0 0
1629 0 0 0
755 0 0 0
236 0 0 0
1260 0 0 0
605 0 0 0
93 0 0 0
1267 0 0 0
243 0 0 0
748 0 0 0
1772 0 0 0
1117 0 0 0
76 0 0 0
1100 0 0 0
588 0 0 0
1612 0 0 0
32 0 0 0
1708 0 0 0
156 0 0 0
169 0 0 0
226 0 0 0
335 0 0 0
346 0 0 0
2012 0 0 0
418 0 0 0
424 0 0 0
466 0 0 0
684 0 0 0
29 0 0 0
89 0 0 0
94 0 0 0
197 0 0 0
240 0 0 0
263 0 0 0
298 0 0 0
316 0 0 0
417 0 0 0
423 0 0 0
463 0 0 0
6 0 0 0
69 0 0 0
70 0 0 0
163 0 0 0
191 0 0 0
244 0 0 0
245 0 0 0
275 0 0 0
312 0 0 0
321 0 0 0
607 0 0 0
387 0 0 0
408 0 0 0
432 0 0 0
1056 0 0 0
1631 0 0 0
1180 0 0 0
1193 0 0 0
1250 0 0 0
1359 0 0 0
1370 0 0 0
1969 0 0 0
1442 0 0 0
1448 0 0 0
1490 0 0 0
1196 0 0 0
1053 0 0 0
1113 0 0 0
1118 0 0 0
1221 0 0 0
1264 0 0 0
1287 0 0 0
1322 0 0 0
1340 0 0 0
1441 0 0 0
1447 0 0 0
1487 0 0 0
1030 0 0 0
1093 0 0 0
1094 0 0 0
1187 0 0 0
1215 0 0 0
1268 0 0 0
1269 0 0 0
1299 0 0 0
1336 0 0 0
1345 0 0 0
95 0 0 0
1411 0 0 0
1432 0 0 0
1456 0 0 0
25 0 0 0
34 0 0 0
46 0 0 0
154 0 0 0
192 0 0 0
194 0 0 0
267 0 0 0
309 0 0 0
454 0 0 0
504 0 0 0
136 0 0 0
1864 0 0 0
182 0 0 0
187 0 0 0
252 0 0 0
269 0 0 0
270 0 0 0
287 0 0 0
296 0 0 0
437 0 0 0
471 0 0 0
494 0 0 0
4 0 0 0
8 0 0 0
41 0 0 0
100 0 0 0
199 0 0 0
1119 0 0 0
253 0 0 0
310 0 0 0
401 0 0 0
422 0 0 0
1792 0 0 0
440 0 0 0
459 0 0 0
1049 0 0 0
1058 0 0 0
1070 0 0 0
1178 0 0 0
1216 0 0 0
1218 0 0 0
1291 0 0 0
1333 0 0 0
1478 0 0 0
1528 0 0 0
1160 0 0 0
1750 0 0 0
1206 0 0 0
1211 0 0 0
1276 0 0 0
1293 0 0 0
1294 0 0 0
1311 0 0 0
1320 0 0 0
1461 0 0 0
1495 0 0 0
1518 0 0 0
1028 0 0 0
1032 0 0 0
1065 0 0 0
1124 0 0 0
1223 0 0 0
1646 0 0 0
1277 0 0 0
1334 0 0 0
1425 0 0 0
1446 0 0 0
1722 0 0 0
1464 0 0 0
1483 0 0 0
96 0 0 0
108 0 0 0
945 0 0 0
164 0 0 0
205 0 0 0
218 0 0 0
247 0 0 0
306 0 0 0
395 0 0 0
404 0 0 0
465 0 0 0
5 0 0 0
47 0 0 0
91 0 0 0
126 0 0 0
217 0 0 0
283 0 0 0
327 0 0 0
677 0 0 0
1457 0 0 0
433 0 0 0
511 0 0 0
28 0 0 0
82 0 0 0
172 0 0 0
186 0 0 0
214 0 0 0
256 0 0 0
328 0 0 0
622 0 0 0
476 0 0 0
1120 0 0 0
1132 0 0 0
1134 0 0 0
1188 0 0 0
1229 0 0 0
1242 0 0 0
1271 0 0 0
1330 0 0 0
1419 0 0 0
1428 0 0 0
1489 0 0 0
1029 0 0 0
1071 0 0 0
1115 0 0 0
1150 0 0 0
1241 0 0 0
1307 0 0 0
1351 0 0 0
1189 0 0 0
1108 0 0 0
84 0 0 0
1535 0 0 0
1052 0 0 0
1106 0 0 0
1620 0 0 0
1210 0 0 0
1238 0 0 0
1280 0 0 0
1352 0 0 0
165 0 0 0
1500 0 0 0
544 0 0 0
596 0 0 0
668 0 0 0
681 0 0 0
738 0 0 0
847 0 0 0
858 0 0 0
1701 0 0 0
930 0 0 0
936 0 0 0
978 0 0 0
812 0 0 0
541 0 0 0
601 0 0 0
606 0 0 0
709 0 0 0
752 0 0 0
775 0 0 0
810 0 0 0
828 0 0 0
929 0 0 0
935 0 0 0
975 0 0 0
518 0 0 0
581 0 0 0
582 0 0 0
675 0 0 0
703 0 0 0
756 0 0 0
757 0 0 0
787 0 0 0
824 0 0 0
833 0 0 0
110 0 0 0
899 0 0 0
920 0 0 0
944 0 0 0
1568 0 0 0
439 0 0 0
1692 0 0 0
1705 0 0 0
1762 0 0 0
1871 0 0 0
1882 0 0 0
1618 0 0 0
1954 0 0 0
1960 0 0 0
2002 0 0 0
1463 0 0 0
1565 0 0 0
1625 0 0 0
1630 0 0 0
1733 0 0 0
1776 0 0 0
1799 0 0 0
1834 0 0 0
1852 0 0 0
1953 0 0 0
1959 0 0 0
1999 0 0 0
1542 0 0 0
1605 0 0 0
1606 0 0 0
1699 0 0 0
1727 0 0 0
1780 0 0 0
1781 0 0 0
1811 0 0 0
1848 0 0 0
1857 0 0 0
1391 0 0 0
1923 0 0 0
1944 0 0 0
1968 0 0 0
537 0 0 0
546 0 0 0
558 0 0 0
666 0 0 0
704 0 0 0
706 0 0 0
779 0 0 0
821 0 0 0
966 0 0 0
1016 0 0 0
648 0 0 0
1564 0 0 0
694 0 0 0
699 0 0 0
764 0 0 0
781 0 0 0
782 0 0 0
799 0 0 0
808 0 0 0
949 0 0 0
983 0 0 0
1006 0 0 0
516 0 0 0
520 0 0 0
553 0 0 0
612 0 0 0
711 0 0 0
367 0 0 0
765 0 0 0
822 0 0 0
913 0 0 0
934 0 0 0
2047 0 0 0
952 0 0 0
971 0 0 0
1561 0 0 0
1570 0 0 0
1582 0 0 0
1690 0 0 0
1728 0 0 0
1730 0 0 0
1803 0 0 0
1845 0 0 0
1990 0 0 0
2040 0 0 0
1672 0 0 0
1836 0 0 0
1718 0 0 0
1723 0 0 0
1788 0 0 0
1805 0 0 0
1806 0 0 0
1823 0 0 0
1832 0 0 0
1973 0 0 0
2007 0 0 0
2030 0 0 0
1540 0 0 0
1544 0 0 0
1577 0 0 0
1636 0 0 0
1735 0 0 0
1903 0 0 0
1789 0 0 0
1846 0 0 0
1937 0 0 0
1958 0 0 0
1324 0 0 0
1976 0 0 0
1995 0 0 0
608 0 0 0
620 0 0 0
1975 0 0 0
676 0 0 0
717 0 0 0
730 0 0 0
759 0 0 0
818 0 0 0
907 0 0 0
916 0 0 0
977 0 0 0
517 0 0 0
559 0 0 0
603 0 0 0
638 0 0 0
729 0 0 0
795 0 0 0
839 0 0 0
300 0 0 0
1863 0 0 0
1819 0 0 0
1023 0 0 0
540 0 0 0
594 0 0 0
951 0 0 0
698 0 0 0
726 0 0 0
768 0 0 0
840 0 0 0
879 0 0 0
988 0 0 0
1632 0 0 0
1644 0 0 0
1753 0 0 0
1700 0 0 0
1741 0 0 0
1754 0 0 0
1783 0 0 0
1842 0 0 0
1931 0 0 0
1940 0 0 0
2001 0 0 0
1541 0 0 0
1583 0 0 0
1627 0 0 0
1662 0 0 0
330 0 0 0
1354 0 0 0
842 0 0 0
1866 0 0 0
319 0 0 0
1343 0 0 0
831 0 0 0
1855 0 0 0
1398 0 0 0
374 0 0 0
1910 0 0 0
886 0 0 0
1921 0 0 0
897 0 0 0
1409 0 0 0
385 0 0 0
853 0 0 0
1877 0 0 0
1365 0 0 0
341 0 0 0
906 0 0 0
394 0 0 0
1930 0 0 0
1418 0 0 0
289 0 0 0
291 0 0 0
292 0 0 0
311 0 0 0
1470 0 0 0
990 0 0 0
344 0 0 0
1951 0 0 0
393 0 0 0
429 0 0 0
441 0 0 0
458 0 0 0
489 0 0 0
265 0 0 0
266 0 0 0
317 0 0 0
370 0 0 0
380 0 0 0
396 0 0 0
405 0 0 0
477 0 0 0
487 0 0 0
259 0 0 0
268 0 0 0
278 0 0 0
339 0 0 0
361 0 0 0
363 0 0 0
2003 0 0 0
375 0 0 0
426 0 0 0
452 0 0 0
1998 0 0 0
495 0 0 0
510 0 0 0
1313 0 0 0
1315 0 0 0
1316 0 0 0
1335 0 0 0
1502 0 0 0
958 0 0 0
1368 0 0 0
927 0 0 0
1417 0 0 0
1453 0 0 0
1465 0 0 0
1482 0 0 0
1513 0 0 0
1289 0 0 0
1290 0 0 0
1341 0 0 0
1394 0 0 0
1404 0 0 0
1420 0 0 0
1429 0 0 0
1501 0 0 0
1511 0 0 0
1283 0 0 0
1292 0 0 0
1302 0 0 0
1363 0 0 0
1385 0 0 0
1387 0 0 0
1972 0 0 0
1399 0 0 0
1450 0 0 0
1476 0 0 0
1970 0 0 0
1519 0 0 0
1534 0 0 0
277 0 0 0
305 0 0 0
336 0 0 0
354 0 0 0
358 0 0 0
360 0 0 0
400 0 0 0
409 0 0 0
449 0 0 0
475 0 0 0
491 0 0 0
502 0 0 0
505 0 0 0
258 0 0 0
294 0 0 0
357 0 0 0
359 0 0 0
371 0 0 0
372 0 0 0
381 0 0 0
478 0 0 0
1952 0 0 0
1963 0 0 0
493 0 0 0
293 0 0 0
314 0 0 0
315 0 0 0
362 0 0 0
368 0 0 0
403 0 0 0
431 0 0 0
460 0 0 0
1439 0 0 0
481 0 0 0
483 0 0 0
1301 0 0 0
1329 0 0 0
1360 0 0 0
1378 0 0 0
1382 0 0 0
1384 0 0 0
1424 0 0 0
1433 0 0 0
1473 0 0 0
1499 0 0 0
1515 0 0 0
1526 0 0 0
1529 0 0 0
1282 0 0 0
1318 0 0 0
1381 0 0 0
1383 0 0 0
1395 0 0 0
1396 0 0 0
1405 0 0 0
446 0 0 0
1947 0 0 0
1949 0 0 0
1517 0 0 0
1317 0 0 0
1338 0 0 0
1339 0 0 0
1386 0 0 0
1392 0 0 0
1427 0 0 0
1455 0 0 0
1484 0 0 0
415 0 0 0
1505 0 0 0
1507 0 0 0
308 0 0 0
333 0 0 0
334 0 0 0
397 0 0 0
430 0 0 0
435 0 0 0
468 0 0 0
484 0 0 0
497 0 0 0
507 0 0 0
295 0 0 0
451 0 0 0
301 0 0 0
331 0 0 0
332 0 0 0
343 0 0 0
373 0 0 0
411 0 0 0
416 0 0 0
445 0 0 0
486 0 0 0
273 0 0 0
276 0 0 0
307 0 0 0
313 0 0 0
322 0 0 0
323 0 0 0
378 0 0 0
1909 0 0 0
413 0 0 0
427 0 0 0
434 0 0 0
436 0 0 0
462 0 0 0
467 0 0 0
1332 0 0 0
1357 0 0 0
1358 0 0 0
1421 0 0 0
1454 0 0 0
1459 0 0 0
1492 0 0 0
1508 0 0 0
1521 0 0 0
1531 0 0 0
1319 0 0 0
1475 0 0 0
1325 0 0 0
1355 0 0 0
1356 0 0 0
1367 0 0 0
1397 0 0 0
1435 0 0 0
1440 0 0 0
1469 0 0 0
1510 0 0 0
1297 0 0 0
1300 0 0 0
1331 0 0 0
1337 0 0 0
1346 0 0 0
1347 0 0 0
1402 0 0 0
1879 0 0 0
1437 0 0 0
1451 0 0 0
1458 0 0 0
1460 0 0 0
1486 0 0 0
1491 0 0 0
801 0 0 0
803 0 0 0
804 0 0 0
823 0 0 0
2008 0 0 0
1982 0 0 0
856 0 0 0
1868 0 0 0
905 0 0 0
941 0 0 0
953 0 0 0
970 0 0 0
1001 0 0 0
777 0 0 0
778 0 0 0
829 0 0 0
882 0 0 0
892 0 0 0
908 0 0 0
917 0 0 0
989 0 0 0
999 0 0 0
771 0 0 0
780 0 0 0
790 0 0 0
851 0 0 0
873 0 0 0
875 0 0 0
1867 0 0 0
887 0 0 0
938 0 0 0
964 0 0 0
1914 0 0 0
1007 0 0 0
1022 0 0 0
1825 0 0 0
1827 0 0 0
1828 0 0 0
1847 0 0 0
984 0 0 0
2014 0 0 0
1880 0 0 0
1812 0 0 0
1929 0 0 0
1965 0 0 0
1977 0 0 0
1994 0 0 0
2025 0 0 0
1801 0 0 0
1802 0 0 0
1853 0 0 0
1906 0 0 0
1916 0 0 0
1932 0 0 0
1941 0 0 0
2013 0 0 0
2023 0 0 0
1795 0 0 0
1804 0 0 0
1814 0 0 0
1875 0 0 0
1897 0 0 0
1899 0 0 0
1859 0 0 0
1911 0 0 0
1962 0 0 0
1988 0 0 0
1858 0 0 0
2031 0 0 0
2046 0 0 0
789 0 0 0
817 0 0 0
848 0 0 0
866 0 0 0
870 0 0 0
872 0 0 0
912 0 0 0
921 0 0 0
961 0 0 0
987 0 0 0
1003 0 0 0
1014 0 0 0
1017 0 0 0
770 0 0 0
806 0 0 0
869 0 0 0
871 0 0 0
883 0 0 0
884 0 0 0
893 0 0 0
1496 0 0 0
1837 0 0 0
1849 0 0 0
1005 0 0 0
805 0 0 0
826 0 0 0
827 0 0 0
874 0 0 0
880 0 0 0
915 0 0 0
943 0 0 0
972 0 0 0
1809 0 0 0
993 0 0 0
995 0 0 0
1813 0 0 0
1841 0 0 0
1872 0 0 0
1890 0 0 0
1894 0 0 0
1896 0 0 0
1936 0 0 0
1945 0 0 0
1985 0 0 0
2011 0 0 0
2027 0 0 0
2038 0 0 0
2041 0 0 0
1794 0 0 0
1830 0 0 0
1893 0 0 0
1895 0 0 0
1907 0 0 0
1908 0 0 0
1917 0 0 0
472 0 0 0
1987 0 0 0
1843 0 0 0
2029 0 0 0
1829 0 0 0
1850 0 0 0
1851 0 0 0
1898 0 0 0
1904 0 0 0
1939 0 0 0
1967 0 0 0
1996 0 0 0
2022 0 0 0
2017 0 0 0
2019 0 0 0
820 0 0 0
845 0 0 0
846 0 0 0
909 0 0 0
942 0 0 0
947 0 0 0
980 0 0 0
996 0 0 0
1009 0 0 0
1019 0 0 0
807 0 0 0
963 0 0 0
813 0 0 0
843 0 0 0
844 0 0 0
855 0 0 0
885 0 0 0
923 0 0 0
928 0 0 0
957 0 0 0
998 0 0 0
785 0 0 0
788 0 0 0
819 0 0 0
825 0 0 0
834 0 0 0
835 0 0 0
890 0 0 0
1981 0 0 0
925 0 0 0
939 0 0 0
946 0 0 0
948 0 0 0
974 0 0 0
979 0 0 0
1844 0 0 0
1869 0 0 0
1870 0 0 0
1933 0 0 0
1966 0 0 0
1971 0 0 0
2004 0 0 0
2020 0 0 0
2033 0 0 0
2043 0 0 0
1831 0 0 0
288 0 0 0
351 0 0 0
388 0 0 0
390 0 0 0
412 0 0 0
425 0 0 0
444 0 0 0
469 0 0 0
386 0 0 0
274 0 0 0
285 0 0 0
337 0 0 0
345 0 0 0
349 0 0 0
350 0 0 0
366 0 0 0
428 0 0 0
453 0 0 0
464 0 0 0
496 0 0 0
262 0 0 0
286 0 0 0
299 0 0 0
320 0 0 0
325 0 0 0
480 0 0 0
329 0 0 0
407 0 0 0
419 0 0 0
447 0 0 0
2048 0 0 0
499 0 0 0
1942 0 0 0
501 0 0 0
506 0 0 0
1312 0 0 0
1375 0 0 0
1412 0 0 0
1414 0 0 0
1436 0 0 0
1449 0 0 0
1468 0 0 0
1493 0 0 0
1410 0 0 0
1298 0 0 0
1309 0 0 0
1361 0 0 0
1369 0 0 0
1373 0 0 0
1374 0 0 0
1390 0 0 0
1452 0 0 0
1477 0 0 0
1488 0 0 0
1520 0 0 0
1286 0 0 0
1310 0 0 0
1323 0 0 0
1344 0 0 0
1349 0 0 0
1504 0 0 0
1353 0 0 0
1431 0 0 0
1443 0 0 0
1471 0 0 0
2006 0 0 0
1523 0 0 0
918 0 0 0
1525 0 0 0
1530 0 0 0
271 0 0 0
281 0 0 0
282 0 0 0
290 0 0 0
302 0 0 0
365 0 0 0
369 0 0 0
377 0 0 0
383 0 0 0
410 0 0 0
448 0 0 0
1978 0 0 0
257 0 0 0
318 0 0 0
376 0 0 0
392 0 0 0
399 0 0 0
438 0 0 0
1957 0 0 0
456 0 0 0
992 0 0 0
508 0 0 0
260 0 0 0
264 0 0 0
280 0 0 0
1927 0 0 0
324 0 0 0
342 0 0 0
355 0 0 0
356 0 0 0
455 0 0 0
492 0 0 0
509 0 0 0
1295 0 0 0
1305 0 0 0
1306 0 0 0
1314 0 0 0
1326 0 0 0
1389 0 0 0
1393 0 0 0
1401 0 0 0
1407 0 0 0
1434 0 0 0
1472 0 0 0
1920 0 0 0
1281 0 0 0
1342 0 0 0
1400 0 0 0
1416 0 0 0
1423 0 0 0
1462 0 0 0
1876 0 0 0
1480 0 0 0
2016 0 0 0
1532 0 0 0
1284 0 0 0
1288 0 0 0
1304 0 0 0
1874 0 0 0
1348 0 0 0
1366 0 0 0
1379 0 0 0
1380 0 0 0
1479 0 0 0
1516 0 0 0
1533 0 0 0
1681 0 0 0
353 0 0 0
364 0 0 0
379 0 0 0
389 0 0 0
402 0 0 0
414 0 0 0
420 0 0 0
461 0 0 0
474 0 0 0
490 0 0 0
503 0 0 0
261 0 0 0
279 0 0 0
303 0 0 0
347 0 0 0
348 0 0 0
382 0 0 0
398 0 0 0
1430 0 0 0
473 0 0 0
488 0 0 0
498 0 0 0
272 0 0 0
443 0 0 0
304 0 0 0
338 0 0 0
340 0 0 0
384 0 0 0
391 0 0 0
421 0 0 0
442 0 0 0
470 0 0 0
512 0 0 0
657 0 0 0
1377 0 0 0
1388 0 0 0
1403 0 0 0
1413 0 0 0
1426 0 0 0
1438 0 0 0
1444 0 0 0
1485 0 0 0
1498 0 0 0
1514 0 0 0
1527 0 0 0
1285 0 0 0
1303 0 0 0
1327 0 0 0
1371 0 0 0
1372 0 0 0
1406 0 0 0
1422 0 0 0
1993 0 0 0
1497 0 0 0
1512 0 0 0
1522 0 0 0
1296 0 0 0
955 0 0 0
1328 0 0 0
1362 0 0 0
1364 0 0 0
1408 0 0 0
1415 0 0 0
1445 0 0 0
1466 0 0 0
1494 0 0 0
1536 0 0 0
800 0 0 0
863 0 0 0
900 0 0 0
902 0 0 0
924 0 0 0
937 0 0 0
956 0 0 0
981 0 0 0
898 0 0 0
786 0 0 0
797 0 0 0
849 0 0 0
857 0 0 0
861 0 0 0
862 0 0 0
878 0 0 0
940 0 0 0
965 0 0 0
976 0 0 0
1008 0 0 0
774 0 0 0
798 0 0 0
811 0 0 0
832 0 0 0
837 0 0 0
1169 0 0 0
841 0 0 0
919 0 0 0
931 0 0 0
959 0 0 0
1840 0 0 0
1011 0 0 0
969 0 0 0
1013 0 0 0
1018 0 0 0
1824 0 0 0
1887 0 0 0
1924 0 0 0
1926 0 0 0
1948 0 0 0
1961 0 0 0
1980 0 0 0
2005 0 0 0
1922 0 0 0
1810 0 0 0
1821 0 0 0
1873 0 0 0
1881 0 0 0
1885 0 0 0
1886 0 0 0
1902 0 0 0
1964 0 0 0
1989 0 0 0
2000 0 0 0
2032 0 0 0
1798 0 0 0
1822 0 0 0
1835 0 0 0
1856 0 0 0
1861 0 0 0
145 0 0 0
1865 0 0 0
1943 0 0 0
1955 0 0 0
1983 0 0 0
1467 0 0 0
2035 0 0 0
457 0 0 0
2037 0 0 0
2042 0 0 0
783 0 0 0
793 0 0 0
794 0 0 0
802 0 0 0
814 0 0 0
877 0 0 0
881 0 0 0
889 0 0 0
895 0 0 0
922 0 0 0
960 0 0 0
1808 0 0 0
769 0 0 0
830 0 0 0
888 0 0 0
904 0 0 0
911 0 0 0
950 0 0 0
2034 0 0 0
968 0 0 0
1474 0 0 0
1020 0 0 0
772 0 0 0
776 0 0 0
792 0 0 0
2024 0 0 0
836 0 0 0
854 0 0 0
867 0 0 0
868 0 0 0
967 0 0 0
1004 0 0 0
1021 0 0 0
1807 0 0 0
1817 0 0 0
1818 0 0 0
1826 0 0 0
1838 0 0 0
1901 0 0 0
1905 0 0 0
1913 0 0 0
1919 0 0 0
1946 0 0 0
1984 0 0 0
2009 0 0 0
1793 0 0 0
1854 0 0 0
1912 0 0 0
1928 0 0 0
1935 0 0 0
1974 0 0 0
2021 0 0 0
1992 0 0 0
962 0 0 0
2044 0 0 0
1796 0 0 0
1800 0 0 0
1816 0 0 0
1934 0 0 0
1860 0 0 0
1878 0 0 0
1891 0 0 0
1892 0 0 0
1991 0 0 0
2028 0 0 0
2045 0 0 0
450 0 0 0
865 0 0 0
876 0 0 0
891 0 0 0
901 0 0 0
914 0 0 0
926 0 0 0
932 0 0 0
973 0 0 0
986 0 0 0
1002 0 0 0
1015 0 0 0
773 0 0 0
791 0 0 0
815 0 0 0
859 0 0 0
860 0 0 0
894 0 0 0
910 0 0 0
997 0 0 0
985 0 0 0
1000 0 0 0
1010 0 0 0
784 0 0 0
1979 0 0 0
816 0 0 0
850 0 0 0
852 0 0 0
896 0 0 0
903 0 0 0
933 0 0 0
954 0 0 0
982 0 0 0
1024 0 0 0
1986 0 0 0
1889 0 0 0
1900 0 0 0
1915 0 0 0
1925 0 0 0
1938 0 0 0
1950 0 0 0
1956 0 0 0
1997 0 0 0
2010 0 0 0
2026 0 0 0
2039 0 0 0
1797 0 0 0
1815 0 0 0
1839 0 0 0
1883 0 0 0
1884 0 0 0
1918 0 0 0
255 0 0 0
1279 0 0 0
767 0 0 0
1791 0 0 0
485 0 0 0
1509 0 0 0
1481 0 0 0
406 0 0 0
90 0 0 0
60 0 0 0
1888 0 0 0
864 0 0 0
1114 0 0 0
1084 0 0 0
1862 0 0 0
838 0 0 0
602 0 0 0
572 0 0 0
1376 0 0 0
352 0 0 0
1626 0 0 0
1596 0 0 0
1350 0 0 0
326 0 0 0
1503 0 0 0
479 0 0 0
991 0 0 0
2015 0 0 0
